     Program PWSCF v.6.7MaX starts on 27Mar2021 at 19:10: 9

     R & G space division:  proc/nbgrp/npool/nimage =      16
     Reading input from Crdimer0.655.scf.in

     Current dimensions of program PWSCF are:
     Max number of different atomic species (ntypx) = 10
     Max number of k-points (npk) =  40000
     Max angular momentum in pseudopotentials (lmaxx) =  3
     file N.pbe-n-kjpaw_psl.1.0.0.UPF: wavefunction(s)  2S renormalized
     file Cr.pbe-spn-kjpaw_psl.1.0.0.UPF: wavefunction(s)  3S 3P 3D renormalized
     file Cr.pbe-spn-kjpaw_psl.1.0.0.UPF: wavefunction(s)  3S 3P 3D renormalized

     Parameters for DFT-D3 Dispersion Correction:
       Reference C6 values for interpolation:

         atom   Coordination number   C6
         B          0.000           214.36
         B          0.971           150.74
         B          1.944           106.23
         B          2.913            62.89
         B          4.586            56.06
         N          0.000            50.54
         N          0.994            44.25
         N          2.014            39.35
         N          2.990            31.16
         Cr1        0.000          1381.48
         Cr1        1.827           571.38
         Cr1       10.619           306.69
         Cr2        0.000          1381.48
         Cr2        1.827           571.38
         Cr2       10.619           306.69

       Values used:

         atom   Coordination number  R0_AB[au]  C6      C8
         B          3.336            3.039     62.89   2506.00
         B          3.371            3.039     62.87   2505.01
         B          3.335            3.039     62.89   2506.01
         B          3.336            3.039     62.89   2505.99
         B          3.338            3.039     62.89   2505.95
         B          3.338            3.039     62.89   2505.94
         N          3.134            2.478     31.22    688.70
         N          3.237            2.478     31.19    688.03
         N          3.134            2.478     31.22    688.70
         N          3.134            2.478     31.22    688.70
         N          3.139            2.478     31.22    688.65
         N          3.138            2.478     31.22    688.66
         N          3.138            2.478     31.22    688.66
         N          3.139            2.478     31.22    688.65
         N          3.134            2.478     31.22    688.70
         B          3.381            3.039     62.86   2504.71
         B          3.371            3.039     62.87   2505.01
         B          3.338            3.039     62.89   2505.94
         B          3.338            3.039     62.89   2505.95
         B          3.336            3.039     62.89   2506.00
         B          3.381            3.039     62.86   2504.71
         N          3.138            2.478     31.22    688.66
         B          3.336            3.039     62.89   2505.98
         B          3.389            3.039     62.85   2504.42
         B          3.336            3.039     62.89   2506.00
         N          3.138            2.478     31.22    688.66
         N          3.237            2.478     31.19    688.03
         N          3.138            2.478     31.22    688.66
         N          3.138            2.478     31.22    688.66
         N          3.134            2.478     31.22    688.70
         N          3.134            2.478     31.22    688.70
         B          3.336            3.039     62.89   2506.00
         Cr1        0.875            3.252   1033.29  95360.64
         Cr2        0.875            3.252   1033.29  95360.59

         Molecular C6 ( Ry / a.u.^6 ) =     74962.90

     Using Slab Decomposition

     bravais-lattice index     =            4
     lattice parameter (alat)  =      18.9275  a.u.
     unit-cell volume          =   10553.3021 (a.u.)^3
     number of atoms/cell      =           34
     number of atomic types    =            4
     number of electrons       =       156.00
     number of Kohn-Sham states=           94
     kinetic-energy cutoff     =      48.0000  Ry
     charge density cutoff     =     457.0000  Ry
     scf convergence threshold =      1.0E-07
     mixing beta               =       0.5000
     number of iterations used =            8  plain     mixing
     Exchange-correlation= SLA  PW   PBX  PBC
                           (   1   4   3   4   0   0   0)

     celldm(1)=  18.927497  celldm(2)=   0.000000  celldm(3)=   1.797125
     celldm(4)=   0.000000  celldm(5)=   0.000000  celldm(6)=   0.000000

     crystal axes: (cart. coord. in units of alat)
               a(1) = (   1.000000   0.000000   0.000000 )
               a(2) = (  -0.500000   0.866025   0.000000 )
               a(3) = (   0.000000   0.000000   1.797125 )

     reciprocal axes: (cart. coord. in units 2 pi/alat)
               b(1) = (  1.000000  0.577350  0.000000 )
               b(2) = (  0.000000  1.154701  0.000000 )
               b(3) = (  0.000000  0.000000  0.556444 )

     PseudoPot. # 1 for B  read from file:
     /home/yueyi/q-e-gpu-qe-gpu-6.7/pseudo/B.pbe-n-kjpaw_psl.1.0.0.UPF
     MD5 check sum: d9c678ba5d3b2fd7b74e61139c9288d8
     Pseudo is Projector augmented-wave + core cor, Zval =  3.0
     Generated using "atomic" code by A. Dal Corso  v.5.1.2
     Shape of augmentation charge: PSQ
     Using radial grid of 1059 points,  4 beta functions with:
                l(1) =   0
                l(2) =   0
                l(3) =   1
                l(4) =   1
     Q(r) pseudized with 0 coefficients

     PseudoPot. # 2 for N  read from file:
     /home/yueyi/q-e-gpu-qe-gpu-6.7/pseudo/N.pbe-n-kjpaw_psl.1.0.0.UPF
     MD5 check sum: e0e4e94a9c4025c5b51bd7d8793849bd
     Pseudo is Projector augmented-wave + core cor, Zval =  5.0
     Generated using "atomic" code by A. Dal Corso  v.5.1.2
     Shape of augmentation charge: PSQ
     Using radial grid of 1085 points,  4 beta functions with:
                l(1) =   0
                l(2) =   0
                l(3) =   1
                l(4) =   1
     Q(r) pseudized with 0 coefficients

     PseudoPot. # 3 for Cr read from file:
     /home/yueyi/q-e-gpu-qe-gpu-6.7/pseudo/Cr.pbe-spn-kjpaw_psl.1.0.0.UPF
     MD5 check sum: 198f1a2427a48552563eee314eba32ba
     Pseudo is Projector augmented-wave + core cor, Zval = 14.0
     Generated using &quot;atomic&quot; code by A. Dal Corso  v.6.3
     Shape of augmentation charge: PSQ
     Using radial grid of 1183 points,  6 beta functions with:
                l(1) =   0
                l(2) =   0
                l(3) =   1
                l(4) =   1
                l(5) =   2
                l(6) =   2
     Q(r) pseudized with 0 coefficients

     PseudoPot. # 4 for Cr read from file:
     /home/yueyi/q-e-gpu-qe-gpu-6.7/pseudo/Cr.pbe-spn-kjpaw_psl.1.0.0.UPF
     MD5 check sum: 198f1a2427a48552563eee314eba32ba
     Pseudo is Projector augmented-wave + core cor, Zval = 14.0
     Generated using &quot;atomic&quot; code by A. Dal Corso  v.6.3
     Shape of augmentation charge: PSQ
     Using radial grid of 1183 points,  6 beta functions with:
                l(1) =   0
                l(2) =   0
                l(3) =   1
                l(4) =   1
                l(5) =   2
                l(6) =   2
     Q(r) pseudized with 0 coefficients

     atomic species   valence    mass     pseudopotential
        B              3.00    10.81100     B ( 1.00)
        N              5.00    14.00674     N ( 1.00)
        Cr1           14.00    51.99610     Cr( 1.00)
        Cr2           14.00    51.99610     Cr( 1.00)

     Starting magnetic structure
     atomic species   magnetization
        B            0.000
        N            0.000
        Cr1          1.000
        Cr2          1.000

     No symmetry found

   Cartesian axes

     site n.     atom                  positions (alat units)
         1           B   tau(   1) = (  -0.1250000   0.2165064   0.8985623  )
         2           B   tau(   2) = (   0.3750000   0.6495191   0.8985623  )
         3           B   tau(   3) = (   0.2500000   0.0000000   0.8985623  )
         4           B   tau(   4) = (   0.7500000   0.0000000   0.8985623  )
         5           B   tau(   5) = (   0.1250000   0.2165064   0.8985623  )
         6           B   tau(   6) = (  -0.3750000   0.6495191   0.8985623  )
         7           N   tau(   7) = (   0.7500005   0.2886748   0.8985623  )
         8           N   tau(   8) = (   0.3750005   0.5051812   0.8985623  )
         9           N   tau(   9) = (   0.3750005   0.0721685   0.8985623  )
        10           N   tau(  10) = (   0.6250005   0.0721685   0.8985623  )
        11           N   tau(  11) = (   0.2500005   0.2886748   0.8985623  )
        12           N   tau(  12) = (   0.6250005   0.5051812   0.8985623  )
        13           N   tau(  13) = (   0.0000005   0.2886748   0.8985623  )
        14           N   tau(  14) = (   0.2500005   0.7216875   0.8985623  )
        15           N   tau(  15) = (  -0.2499995   0.7216875   0.8985623  )
        16           B   tau(  16) = (   0.0000000   0.4330127   0.8985623  )
        17           B   tau(  17) = (   0.1250000   0.6495191   0.8985623  )
        18           B   tau(  18) = (  -0.1250000   0.6495191   0.8985623  )
        19           B   tau(  19) = (   0.3750000   0.2165064   0.8985623  )
        20           B   tau(  20) = (   0.6250000   0.2165064   0.8985623  )
        21           B   tau(  21) = (   0.5000000   0.4330127   0.8985623  )
        22           N   tau(  22) = (   0.5000005   0.2886748   0.8985623  )
        23           B   tau(  23) = (  -0.2500000   0.4330127   0.8985623  )
        24           B   tau(  24) = (   0.2500000   0.4330127   0.8985623  )
        25           B   tau(  25) = (   0.5000000   0.0000000   0.8985623  )
        26           N   tau(  26) = (  -0.1249995   0.5051812   0.8985623  )
        27           N   tau(  27) = (   0.1250005   0.5051812   0.8985623  )
        28           N   tau(  28) = (   0.0000005   0.7216875   0.8985623  )
        29           N   tau(  29) = (   0.5000005   0.7216875   0.8985623  )
        30           N   tau(  30) = (   0.1250005   0.0721685   0.8985623  )
        31           N   tau(  31) = (   0.8750005   0.0721685   0.8985623  )
        32           B   tau(  32) = (   0.0000000   0.0000000   0.8985623  )
        33           Cr1 tau(  33) = (   0.1083335   0.5051812   1.1771166  )
        34           Cr2 tau(  34) = (   0.3916668   0.5051812   1.1771166  )

     number of k points=    15  Gaussian smearing, width (Ry)=  0.0000
                       cart. coord. in units 2pi/alat
        k(    1) = (   0.1666667   0.2886751   0.0000000), wk =   0.0740741
        k(    2) = (   0.1666667  -0.4811252   0.0000000), wk =   0.0740741
        k(    3) = (   0.1666667  -0.0962250   0.0000000), wk =   0.0740741
        k(    4) = (  -0.5000000  -0.8660254   0.0000000), wk =   0.0370370
        k(    5) = (  -0.1666667   0.2886751   0.0000000), wk =   0.0740741
        k(    6) = (   0.3333333   0.0000000   0.0000000), wk =   0.0740741
        k(    7) = (  -0.1666667  -0.4811252   0.0000000), wk =   0.0740741
        k(    8) = (   0.5000000  -0.0962250   0.0000000), wk =   0.0740741
        k(    9) = (  -0.3333333  -0.3849002   0.0000000), wk =   0.0740741
        k(   10) = (   0.5000000   0.0962250   0.0000000), wk =   0.0740741
        k(   11) = (  -0.3333333   0.3849002   0.0000000), wk =   0.0740741
        k(   12) = (  -0.1666667  -0.0962250   0.0000000), wk =   0.0740741
        k(   13) = (  -0.0000000  -0.1924501   0.0000000), wk =   0.0740741
        k(   14) = (   0.5000000  -0.8660254   0.0000000), wk =   0.0370370
        k(   15) = (  -1.0000000   0.0000000   0.0000000), wk =   0.0370370

     Initial potential from superposition of free atoms

     starting charge  155.99382, renormalised to  156.00000

     negative rho (up, down):  6.926E-03 4.655E-04
     Starting wfcs are  148 randomized atomic wfcs
     Checking if some PAW data can be deallocated...

     Self-consistent Calculation

     iteration #  1     ecut=    48.00 Ry     beta= 0.50
     Davidson diagonalization with overlap
     ethr =  1.00E-02,  avg # of iterations =  2.8

     negative rho (up, down):  5.030E-03 2.808E-03

     total energy              =   -1130.77013903 Ry
     estimated scf accuracy    <      11.25165770 Ry

     total magnetization       =    12.00 Bohr mag/cell
     absolute magnetization    =    12.13 Bohr mag/cell

[...]

     iteration #  9     ecut=    48.00 Ry     beta= 0.50
     Davidson diagonalization with overlap
     c_bands:  1 eigenvalues not converged
     c_bands:  1 eigenvalues not converged
     c_bands:  1 eigenvalues not converged
     c_bands:  1 eigenvalues not converged
     c_bands:  1 eigenvalues not converged
     ethr =  2.41E-06,  avg # of iterations = 12.3

[...]

     iteration # 11     ecut=    48.00 Ry     beta= 0.50
     Davidson diagonalization with overlap
     c_bands:  1 eigenvalues not converged
     c_bands:  1 eigenvalues not converged
     ethr =  3.74E-07,  avg # of iterations =  4.5

[...]

     total energy              =   -1133.82025878 Ry
     estimated scf accuracy    <       0.00000027 Ry

[...]

     iteration # 16     ecut=    48.00 Ry     beta= 0.50
     Davidson diagonalization with overlap
     ethr =  1.72E-10,  avg # of iterations =  3.9

     negative rho (up, down):  3.109E-03 3.811E-03

     Magnetic moment per site:
     atom:    1    charge:    0.8803    magn:    0.0004    constr:    0.0000
     atom:    2    charge:    0.8804    magn:    0.0015    constr:    0.0000
     atom:    3    charge:    0.8802    magn:    0.0002    constr:    0.0000
     atom:    4    charge:    0.8800    magn:    0.0004    constr:    0.0000
     atom:    5    charge:    0.8799    magn:    0.0005    constr:    0.0000
     atom:    6    charge:    0.8806    magn:    0.0003    constr:    0.0000
     atom:    7    charge:    2.8609    magn:    0.0009    constr:    0.0000
     atom:    8    charge:    2.8619    magn:    0.0068    constr:    0.0000
     atom:    9    charge:    2.8609    magn:    0.0002    constr:    0.0000
     atom:   10    charge:    2.8608    magn:    0.0005    constr:    0.0000
     atom:   11    charge:    2.8604    magn:    0.0039    constr:    0.0000
     atom:   12    charge:    2.8607    magn:    0.0022    constr:    0.0000
     atom:   13    charge:    2.8595    magn:    0.0035    constr:    0.0000
     atom:   14    charge:    2.8592    magn:    0.0044    constr:    0.0000
     atom:   15    charge:    2.8600    magn:    0.0000    constr:    0.0000
     atom:   16    charge:    0.8813    magn:    0.0013    constr:    0.0000
     atom:   17    charge:    0.8801    magn:    0.0015    constr:    0.0000
     atom:   18    charge:    0.8803    magn:    0.0003    constr:    0.0000
     atom:   19    charge:    0.8793    magn:    0.0005    constr:    0.0000
     atom:   20    charge:    0.8797    magn:    0.0004    constr:    0.0000
     atom:   21    charge:    0.8811    magn:    0.0013    constr:    0.0000
     atom:   22    charge:    2.8608    magn:    0.0035    constr:    0.0000
     atom:   23    charge:    0.8802    magn:    0.0005    constr:    0.0000
     atom:   24    charge:    0.8789    magn:    0.0023    constr:    0.0000
     atom:   25    charge:    0.8798    magn:    0.0005    constr:    0.0000
     atom:   26    charge:    2.8596    magn:    0.0022    constr:    0.0000
     atom:   27    charge:    2.8607    magn:    0.0068    constr:    0.0000
     atom:   28    charge:    2.8596    magn:    0.0031    constr:    0.0000
     atom:   29    charge:    2.8595    magn:    0.0031    constr:    0.0000
     atom:   30    charge:    2.8596    magn:    0.0002    constr:    0.0000
     atom:   31    charge:    2.8595    magn:    0.0005    constr:    0.0000
     atom:   32    charge:    0.8800    magn:    0.0005    constr:    0.0000
     atom:   33    charge:   12.4850    magn:    4.2029    constr:    0.0000
     atom:   34    charge:   12.4849    magn:    4.2027    constr:    0.0000

     End of self-consistent calculation

 ------ SPIN UP ------------

          k = 0.1667 0.2887 0.0000 ( 59267 PWs)   bands (ev):

   -72.7600 -72.7520 -44.2824 -44.2024 -44.2003 -44.1924 -44.1335 -44.1256
   -21.3604 -20.7806 -20.7553 -20.2160 -20.2043 -19.7016 -19.6815 -19.2076
   -18.8245 -18.7925 -18.5606 -18.5566 -18.3075 -18.1898 -18.1701 -17.9533
   -12.5951 -12.3160 -12.3113 -11.9291 -11.9197 -11.7655 -11.3056 -11.2892
   -10.4993 -10.4757 -10.2284 -10.2150  -9.6999  -9.6922  -8.9864  -8.9354
    -8.9312  -8.8776  -8.8598  -8.7008  -8.3002  -8.2117  -8.1234  -7.9379
    -7.9310  -7.5486  -7.5409  -7.4240  -7.3820  -7.3154  -7.3079  -7.0619
    -7.0600  -6.7092  -6.6384  -6.2601  -6.2563  -6.0015  -5.5228  -5.4660
    -5.3858  -5.3038  -5.0298  -5.0182  -4.6431  -4.4706  -4.4362  -4.0952
    -2.7331  -1.9396  -1.9231  -1.7232  -1.5874  -1.4378  -1.4084  -1.3742
    -1.2706  -1.2268  -1.0597  -0.6193   0.6673   0.7793   1.1168   1.2212
     1.2696   1.3743   1.4512   1.4996   1.5802   1.8643

[...]

          k =-0.5000-0.8660 0.0000 ( 59292 PWs)   bands (ev):

[...]

 ------ SPIN DOWN ----------

[...]

          k = 0.5000-0.8660 0.0000 ( 59292 PWs)   bands (ev):

[...]

          k =-1.0000 0.0000 0.0000 ( 59292 PWs)   bands (ev):

   -68.5660 -68.5567 -40.1814 -40.0871 -40.0653 -40.0555 -39.9315 -39.9219
   -21.2014 -21.0996 -20.5823 -20.5668 -19.5449 -19.5379 -19.5040 -19.4842
   -19.1291 -19.0534 -18.5349 -18.3998 -18.3945 -18.3535 -17.8961 -17.8859
   -12.2527 -12.1709 -12.1338 -12.1110 -11.9842 -11.9727 -11.4673 -11.3946
   -10.3579 -10.3567 -10.2302 -10.2257 -10.2182 -10.2161  -8.7653  -8.7097
    -8.6534  -8.6221  -8.5963  -8.5659  -7.9945  -7.9802  -7.9638  -7.9601
    -7.9101  -7.9002  -7.8897  -7.8632  -7.6341  -7.5476  -6.7118  -6.7055
    -6.4762  -6.4529  -6.3871  -6.3567  -6.3235  -6.2574  -5.8534  -5.7527
    -5.6835  -5.6052  -4.9914  -4.7889  -4.7506  -4.7089  -3.9831  -3.9676
    -1.2816   0.6269   0.6667   0.8685   0.8694   1.0864   1.3228   1.3458
     1.3586   1.4088   1.5172   1.5875   1.7364   1.7719   1.9175   2.0486
     2.0643   2.2167   2.2640   2.2740   2.4531   2.5130

     the Fermi energy is    -1.0154 ev

!    total energy              =   -1133.82025890 Ry

     total all-electron energy =     -6753.495962 Ry
     estimated scf accuracy    <       0.00000003 Ry
     smearing contrib. (-TS)   =      -0.00000000 Ry
     internal energy E=F+TS    =   -1133.82025890 Ry

     The total energy is F=E-TS. E is the sum of the following terms:
     one-electron contribution =   -4052.15804975 Ry
     hartree contribution      =    2053.91161405 Ry
     xc contribution           =    -186.06570013 Ry
     ewald contribution        =    1409.86642005 Ry
     DFT-D3 Dispersion         =      -0.13217021 Ry
     one-center paw contrib.   =    -359.24237291 Ry

     total magnetization       =    10.00 Bohr mag/cell
     absolute magnetization    =    10.01 Bohr mag/cell

     convergence has been achieved in  16 iterations

     Writing output data file ./mytmp/Crdimer0.655.save/

     General routines

     Parallel routines

   This run was terminated on:  20: 7:24  27Mar2021

   JOB DONE.