     Program PWSCF v.6.7MaX starts on 27Mar2021 at 18:13:50

     R & G space division:  proc/nbgrp/npool/nimage =      16
     Reading input from Crdimer0.665.scf.in

     Current dimensions of program PWSCF are:
     Max number of different atomic species (ntypx) = 10
     Max number of k-points (npk) =  40000
     Max angular momentum in pseudopotentials (lmaxx) =  3
     file N.pbe-n-kjpaw_psl.1.0.0.UPF: wavefunction(s)  2S renormalized
     file Cr.pbe-spn-kjpaw_psl.1.0.0.UPF: wavefunction(s)  3S 3P 3D renormalized
     file Cr.pbe-spn-kjpaw_psl.1.0.0.UPF: wavefunction(s)  3S 3P 3D renormalized

     Parameters for DFT-D3 Dispersion Correction:
       Reference C6 values for interpolation:

         atom   Coordination number   C6
         B          0.000           214.36
         B          0.971           150.74
         B          1.944           106.23
         B          2.913            62.89
         B          4.586            56.06
         N          0.000            50.54
         N          0.994            44.25
         N          2.014            39.35
         N          2.990            31.16
         Cr1        0.000          1381.48
         Cr1        1.827           571.38
         Cr1       10.619           306.69
         Cr2        0.000          1381.48
         Cr2        1.827           571.38
         Cr2       10.619           306.69

       Values used:

         atom   Coordination number  R0_AB[au]  C6      C8
         B          3.336            3.039     62.89   2506.00
         B          3.355            3.039     62.88   2505.48
         B          3.335            3.039     62.89   2506.01
         B          3.336            3.039     62.89   2506.00
         B          3.337            3.039     62.89   2505.96
         B          3.337            3.039     62.89   2505.96
         N          3.134            2.478     31.22    688.70
         N          3.182            2.478     31.20    688.32
         N          3.134            2.478     31.22    688.70
         N          3.134            2.478     31.22    688.70
         N          3.138            2.478     31.22    688.66
         N          3.137            2.478     31.22    688.67
         N          3.137            2.478     31.22    688.67
         N          3.138            2.478     31.22    688.66
         N          3.134            2.478     31.22    688.70
         B          3.359            3.039     62.88   2505.37
         B          3.355            3.039     62.88   2505.48
         B          3.337            3.039     62.89   2505.96
         B          3.337            3.039     62.89   2505.96
         B          3.336            3.039     62.89   2506.00
         B          3.359            3.039     62.88   2505.37
         N          3.137            2.478     31.22    688.67
         B          3.336            3.039     62.89   2505.99
         B          3.366            3.039     62.87   2505.19
         B          3.336            3.039     62.89   2506.00
         N          3.137            2.478     31.22    688.67
         N          3.182            2.478     31.20    688.32
         N          3.137            2.478     31.22    688.67
         N          3.137            2.478     31.22    688.67
         N          3.134            2.478     31.22    688.70
         N          3.134            2.478     31.22    688.70
         B          3.336            3.039     62.89   2506.00
         Cr1        0.763            3.252   1279.89 118119.45
         Cr2        0.763            3.252   1279.89 118119.44

         Molecular C6 ( Ry / a.u.^6 ) =     77988.25

     Using Slab Decomposition

     bravais-lattice index     =            4
     lattice parameter (alat)  =      18.9275  a.u.
     unit-cell volume          =   10553.3021 (a.u.)^3
     number of atoms/cell      =           34
     number of atomic types    =            4
     number of electrons       =       156.00
     number of Kohn-Sham states=           94
     kinetic-energy cutoff     =      48.0000  Ry
     charge density cutoff     =     457.0000  Ry
     scf convergence threshold =      1.0E-07
     mixing beta               =       0.5000
     number of iterations used =            8  plain     mixing
     Exchange-correlation= SLA  PW   PBX  PBC
                           (   1   4   3   4   0   0   0)

     celldm(1)=  18.927497  celldm(2)=   0.000000  celldm(3)=   1.797125
     celldm(4)=   0.000000  celldm(5)=   0.000000  celldm(6)=   0.000000

     crystal axes: (cart. coord. in units of alat)
               a(1) = (   1.000000   0.000000   0.000000 )
               a(2) = (  -0.500000   0.866025   0.000000 )
               a(3) = (   0.000000   0.000000   1.797125 )

     reciprocal axes: (cart. coord. in units 2 pi/alat)
               b(1) = (  1.000000  0.577350  0.000000 )
               b(2) = (  0.000000  1.154701  0.000000 )
               b(3) = (  0.000000  0.000000  0.556444 )

     PseudoPot. # 1 for B  read from file:
     /home/yueyi/q-e-gpu-qe-gpu-6.7/pseudo/B.pbe-n-kjpaw_psl.1.0.0.UPF
     MD5 check sum: d9c678ba5d3b2fd7b74e61139c9288d8
     Pseudo is Projector augmented-wave + core cor, Zval =  3.0
     Generated using "atomic" code by A. Dal Corso  v.5.1.2
     Shape of augmentation charge: PSQ
     Using radial grid of 1059 points,  4 beta functions with:
                l(1) =   0
                l(2) =   0
                l(3) =   1
                l(4) =   1
     Q(r) pseudized with 0 coefficients

     PseudoPot. # 2 for N  read from file:
     /home/yueyi/q-e-gpu-qe-gpu-6.7/pseudo/N.pbe-n-kjpaw_psl.1.0.0.UPF
     MD5 check sum: e0e4e94a9c4025c5b51bd7d8793849bd
     Pseudo is Projector augmented-wave + core cor, Zval =  5.0
     Generated using "atomic" code by A. Dal Corso  v.5.1.2
     Shape of augmentation charge: PSQ
     Using radial grid of 1085 points,  4 beta functions with:
                l(1) =   0
                l(2) =   0
                l(3) =   1
                l(4) =   1
     Q(r) pseudized with 0 coefficients

     PseudoPot. # 3 for Cr read from file:
     /home/yueyi/q-e-gpu-qe-gpu-6.7/pseudo/Cr.pbe-spn-kjpaw_psl.1.0.0.UPF
     MD5 check sum: 198f1a2427a48552563eee314eba32ba
     Pseudo is Projector augmented-wave + core cor, Zval = 14.0
     Generated using &quot;atomic&quot; code by A. Dal Corso  v.6.3
     Shape of augmentation charge: PSQ
     Using radial grid of 1183 points,  6 beta functions with:
                l(1) =   0
                l(2) =   0
                l(3) =   1
                l(4) =   1
                l(5) =   2
                l(6) =   2
     Q(r) pseudized with 0 coefficients

     PseudoPot. # 4 for Cr read from file:
     /home/yueyi/q-e-gpu-qe-gpu-6.7/pseudo/Cr.pbe-spn-kjpaw_psl.1.0.0.UPF
     MD5 check sum: 198f1a2427a48552563eee314eba32ba
     Pseudo is Projector augmented-wave + core cor, Zval = 14.0
     Generated using &quot;atomic&quot; code by A. Dal Corso  v.6.3
     Shape of augmentation charge: PSQ
     Using radial grid of 1183 points,  6 beta functions with:
                l(1) =   0
                l(2) =   0
                l(3) =   1
                l(4) =   1
                l(5) =   2
                l(6) =   2
     Q(r) pseudized with 0 coefficients

     atomic species   valence    mass     pseudopotential
        B              3.00    10.81100     B ( 1.00)
        N              5.00    14.00674     N ( 1.00)
        Cr1           14.00    51.99610     Cr( 1.00)
        Cr2           14.00    51.99610     Cr( 1.00)

     Starting magnetic structure
     atomic species   magnetization
        B            0.000
        N            0.000
        Cr1          1.000
        Cr2          1.000

     No symmetry found

   Cartesian axes

     site n.     atom                  positions (alat units)
         1           B   tau(   1) = (  -0.1250000   0.2165064   0.8985623  )
         2           B   tau(   2) = (   0.3750000   0.6495191   0.8985623  )
         3           B   tau(   3) = (   0.2500000   0.0000000   0.8985623  )
         4           B   tau(   4) = (   0.7500000   0.0000000   0.8985623  )
         5           B   tau(   5) = (   0.1250000   0.2165064   0.8985623  )
         6           B   tau(   6) = (  -0.3750000   0.6495191   0.8985623  )
         7           N   tau(   7) = (   0.7500005   0.2886748   0.8985623  )
         8           N   tau(   8) = (   0.3750005   0.5051812   0.8985623  )
         9           N   tau(   9) = (   0.3750005   0.0721685   0.8985623  )
        10           N   tau(  10) = (   0.6250005   0.0721685   0.8985623  )
        11           N   tau(  11) = (   0.2500005   0.2886748   0.8985623  )
        12           N   tau(  12) = (   0.6250005   0.5051812   0.8985623  )
        13           N   tau(  13) = (   0.0000005   0.2886748   0.8985623  )
        14           N   tau(  14) = (   0.2500005   0.7216875   0.8985623  )
        15           N   tau(  15) = (  -0.2499995   0.7216875   0.8985623  )
        16           B   tau(  16) = (   0.0000000   0.4330127   0.8985623  )
        17           B   tau(  17) = (   0.1250000   0.6495191   0.8985623  )
        18           B   tau(  18) = (  -0.1250000   0.6495191   0.8985623  )
        19           B   tau(  19) = (   0.3750000   0.2165064   0.8985623  )
        20           B   tau(  20) = (   0.6250000   0.2165064   0.8985623  )
        21           B   tau(  21) = (   0.5000000   0.4330127   0.8985623  )
        22           N   tau(  22) = (   0.5000005   0.2886748   0.8985623  )
        23           B   tau(  23) = (  -0.2500000   0.4330127   0.8985623  )
        24           B   tau(  24) = (   0.2500000   0.4330127   0.8985623  )
        25           B   tau(  25) = (   0.5000000   0.0000000   0.8985623  )
        26           N   tau(  26) = (  -0.1249995   0.5051812   0.8985623  )
        27           N   tau(  27) = (   0.1250005   0.5051812   0.8985623  )
        28           N   tau(  28) = (   0.0000005   0.7216875   0.8985623  )
        29           N   tau(  29) = (   0.5000005   0.7216875   0.8985623  )
        30           N   tau(  30) = (   0.1250005   0.0721685   0.8985623  )
        31           N   tau(  31) = (   0.8750005   0.0721685   0.8985623  )
        32           B   tau(  32) = (   0.0000000   0.0000000   0.8985623  )
        33           Cr1 tau(  33) = (   0.1083335   0.5051812   1.1950879  )
        34           Cr2 tau(  34) = (   0.3916668   0.5051812   1.1950879  )

     number of k points=    15  Gaussian smearing, width (Ry)=  0.0000
                       cart. coord. in units 2pi/alat
        k(    1) = (   0.1666667   0.2886751   0.0000000), wk =   0.0740741
        k(    2) = (   0.1666667  -0.4811252   0.0000000), wk =   0.0740741
        k(    3) = (   0.1666667  -0.0962250   0.0000000), wk =   0.0740741
        k(    4) = (  -0.5000000  -0.8660254   0.0000000), wk =   0.0370370
        k(    5) = (  -0.1666667   0.2886751   0.0000000), wk =   0.0740741
        k(    6) = (   0.3333333   0.0000000   0.0000000), wk =   0.0740741
        k(    7) = (  -0.1666667  -0.4811252   0.0000000), wk =   0.0740741
        k(    8) = (   0.5000000  -0.0962250   0.0000000), wk =   0.0740741
        k(    9) = (  -0.3333333  -0.3849002   0.0000000), wk =   0.0740741
        k(   10) = (   0.5000000   0.0962250   0.0000000), wk =   0.0740741
        k(   11) = (  -0.3333333   0.3849002   0.0000000), wk =   0.0740741
        k(   12) = (  -0.1666667  -0.0962250   0.0000000), wk =   0.0740741
        k(   13) = (  -0.0000000  -0.1924501   0.0000000), wk =   0.0740741
        k(   14) = (   0.5000000  -0.8660254   0.0000000), wk =   0.0370370
        k(   15) = (  -1.0000000   0.0000000   0.0000000), wk =   0.0370370

     Initial potential from superposition of free atoms

     starting charge  155.99382, renormalised to  156.00000

     negative rho (up, down):  6.786E-03 4.655E-04
     Starting wfcs are  148 randomized atomic wfcs
     Checking if some PAW data can be deallocated...

     Self-consistent Calculation

     iteration #  1     ecut=    48.00 Ry     beta= 0.50
     Davidson diagonalization with overlap
     ethr =  1.00E-02,  avg # of iterations =  2.7

     negative rho (up, down):  4.930E-03 2.862E-03

     total energy              =   -1130.75356742 Ry
     estimated scf accuracy    <      11.31951113 Ry

     total magnetization       =    12.00 Bohr mag/cell
     absolute magnetization    =    12.15 Bohr mag/cell

[...]

     total energy              =   -1133.82687374 Ry
     estimated scf accuracy    <       0.00000018 Ry

[...]

     iteration # 15     ecut=    48.00 Ry     beta= 0.50
     Davidson diagonalization with overlap
     ethr =  1.18E-10,  avg # of iterations =  4.1

     negative rho (up, down):  3.110E-03 3.814E-03

     Magnetic moment per site:
     atom:    1    charge:    0.8804    magn:    0.0002    constr:    0.0000
     atom:    2    charge:    0.8801    magn:    0.0007    constr:    0.0000
     atom:    3    charge:    0.8803    magn:    0.0001    constr:    0.0000
     atom:    4    charge:    0.8801    magn:    0.0002    constr:    0.0000
     atom:    5    charge:    0.8800    magn:    0.0002    constr:    0.0000
     atom:    6    charge:    0.8806    magn:    0.0001    constr:    0.0000
     atom:    7    charge:    2.8609    magn:    0.0005    constr:    0.0000
     atom:    8    charge:    2.8613    magn:    0.0075    constr:    0.0000
     atom:    9    charge:    2.8609    magn:    0.0001    constr:    0.0000
     atom:   10    charge:    2.8609    magn:    0.0003    constr:    0.0000
     atom:   11    charge:    2.8605    magn:    0.0027    constr:    0.0000
     atom:   12    charge:    2.8608    magn:    0.0017    constr:    0.0000
     atom:   13    charge:    2.8596    magn:    0.0025    constr:    0.0000
     atom:   14    charge:    2.8594    magn:    0.0031    constr:    0.0000
     atom:   15    charge:    2.8600    magn:    0.0001    constr:    0.0000
     atom:   16    charge:    0.8807    magn:    0.0004    constr:    0.0000
     atom:   17    charge:    0.8798    magn:    0.0007    constr:    0.0000
     atom:   18    charge:    0.8803    magn:    0.0002    constr:    0.0000
     atom:   19    charge:    0.8794    magn:    0.0002    constr:    0.0000
     atom:   20    charge:    0.8798    magn:    0.0002    constr:    0.0000
     atom:   21    charge:    0.8805    magn:    0.0004    constr:    0.0000
     atom:   22    charge:    2.8609    magn:    0.0025    constr:    0.0000
     atom:   23    charge:    0.8803    magn:    0.0003    constr:    0.0000
     atom:   24    charge:    0.8788    magn:    0.0011    constr:    0.0000
     atom:   25    charge:    0.8798    magn:    0.0003    constr:    0.0000
     atom:   26    charge:    2.8597    magn:    0.0017    constr:    0.0000
     atom:   27    charge:    2.8602    magn:    0.0075    constr:    0.0000
     atom:   28    charge:    2.8597    magn:    0.0022    constr:    0.0000
     atom:   29    charge:    2.8595    magn:    0.0022    constr:    0.0000
     atom:   30    charge:    2.8596    magn:    0.0001    constr:    0.0000
     atom:   31    charge:    2.8596    magn:    0.0003    constr:    0.0000
     atom:   32    charge:    0.8801    magn:    0.0003    constr:    0.0000
     atom:   33    charge:   12.5243    magn:    4.2353    constr:    0.0000
     atom:   34    charge:   12.5243    magn:    4.2353    constr:    0.0000

     End of self-consistent calculation

 ------ SPIN UP ------------

          k = 0.1667 0.2887 0.0000 ( 59267 PWs)   bands (ev):

   -72.8450 -72.8369 -44.3887 -44.3089 -44.2615 -44.2537 -44.2123 -44.2044
   -21.2872 -20.7024 -20.6925 -20.1429 -20.1367 -19.6270 -19.6200 -19.1382
   -18.7424 -18.7283 -18.4935 -18.4905 -18.2354 -18.1231 -18.1118 -17.8873
   -12.5235 -12.2442 -12.2416 -11.8589 -11.8550 -11.6968 -11.2317 -11.2257
   -10.4302 -10.4065 -10.1568 -10.1514  -9.6285  -9.6257  -8.8872  -8.8649
    -8.8624  -8.8049  -8.7986  -8.6340  -8.2344  -8.1089  -8.0520  -7.8684
    -7.8647  -7.4781  -7.4744  -7.3301  -7.3038  -7.2466  -7.2437  -6.9959
    -6.9946  -6.6179  -6.5724  -6.1923  -6.1904  -5.9170  -5.4563  -5.3580
    -5.3115  -5.2378  -4.9531  -4.9437  -4.5550  -4.3976  -4.3734  -4.0208
    -2.8317  -2.0098  -1.9948  -1.7985  -1.6300  -1.5075  -1.4712  -1.4578
    -1.3453  -1.3171  -1.2177  -0.7022   0.6486   0.8164   1.1523   1.1757
     1.2599   1.4293   1.4934   1.5494   1.6030   1.8073

[...]

          k =-0.5000-0.8660 0.0000 ( 59292 PWs)   bands (ev):

[...]

 ------ SPIN DOWN ----------

[...]

          k = 0.5000-0.8660 0.0000 ( 59292 PWs)   bands (ev):

[...]

          k =-1.0000 0.0000 0.0000 ( 59292 PWs)   bands (ev):

   -68.6495 -68.6402 -40.3132 -40.2186 -40.1010 -40.0917 -40.0070 -39.9975
   -21.1170 -21.0463 -20.5104 -20.4987 -19.4683 -19.4632 -19.4430 -19.4267
   -19.0526 -18.9978 -18.4329 -18.3396 -18.3362 -18.3048 -17.8299 -17.8209
   -12.1602 -12.1026 -12.0768 -12.0594 -11.9164 -11.9063 -11.3903 -11.3382
   -10.2807 -10.2801 -10.1650 -10.1637 -10.1568 -10.1568  -8.6600  -8.6246
    -8.5854  -8.5631  -8.5438  -8.5145  -7.9163  -7.9059  -7.8971  -7.8944
    -7.8436  -7.8434  -7.8153  -7.7896  -7.5558  -7.4936  -6.6459  -6.6401
    -6.3858  -6.3674  -6.3239  -6.2983  -6.2486  -6.2009  -5.7700  -5.6947
    -5.6070  -5.5505  -4.8647  -4.7237  -4.6943  -4.6625  -3.9121  -3.8982
    -1.3951   0.5433   0.7772   0.9078   0.9756   1.1049   1.2565   1.2905
     1.3693   1.4513   1.5708   1.6194   1.6923   1.7763   1.8860   1.9706
     2.0685   2.1429   2.2035   2.2055   2.3750   2.4059

     the Fermi energy is    -1.1215 ev

!    total energy              =   -1133.82687390 Ry

     total all-electron energy =     -6753.502577 Ry
     estimated scf accuracy    <       0.00000002 Ry
     smearing contrib. (-TS)   =      -0.00000000 Ry
     internal energy E=F+TS    =   -1133.82687390 Ry

     The total energy is F=E-TS. E is the sum of the following terms:
     one-electron contribution =   -3985.46174553 Ry
     hartree contribution      =    2020.78330607 Ry
     xc contribution           =    -186.03097020 Ry
     ewald contribution        =    1376.25997598 Ry
     DFT-D3 Dispersion         =      -0.13460589 Ry
     one-center paw contrib.   =    -359.24283434 Ry

     total magnetization       =    10.00 Bohr mag/cell
     absolute magnetization    =    10.01 Bohr mag/cell

     convergence has been achieved in  15 iterations

     Writing output data file ./mytmp/Crdimer0.665.save/

     General routines

     Parallel routines

   This run was terminated on:  19:10: 8  27Mar2021

   JOB DONE.