     Program PWSCF v.6.7MaX starts on 28Mar2021 at  0:13:12

     R & G space division:  proc/nbgrp/npool/nimage =      16
     Reading input from Crdimer0.66.scf.in

     Current dimensions of program PWSCF are:
     Max number of different atomic species (ntypx) = 10
     Max number of k-points (npk) =  40000
     Max angular momentum in pseudopotentials (lmaxx) =  3
     file N.pbe-n-kjpaw_psl.1.0.0.UPF: wavefunction(s)  2S renormalized
     file Cr.pbe-spn-kjpaw_psl.1.0.0.UPF: wavefunction(s)  3S 3P 3D renormalized
     file Cr.pbe-spn-kjpaw_psl.1.0.0.UPF: wavefunction(s)  3S 3P 3D renormalized

     Parameters for DFT-D3 Dispersion Correction:
       Reference C6 values for interpolation:

         atom   Coordination number   C6
         B          0.000           214.36
         B          0.971           150.74
         B          1.944           106.23
         B          2.913            62.89
         B          4.586            56.06
         N          0.000            50.54
         N          0.994            44.25
         N          2.014            39.35
         N          2.990            31.16
         Cr1        0.000          1381.48
         Cr1        1.827           571.38
         Cr1       10.619           306.69
         Cr2        0.000          1381.48
         Cr2        1.827           571.38
         Cr2       10.619           306.69

       Values used:

         atom   Coordination number  R0_AB[au]  C6      C8
         B          3.336            3.039     62.89   2506.00
         B          3.362            3.039     62.87   2505.29
         B          3.335            3.039     62.89   2506.01
         B          3.336            3.039     62.89   2505.99
         B          3.337            3.039     62.89   2505.96
         B          3.338            3.039     62.89   2505.95
         N          3.134            2.478     31.22    688.70
         N          3.204            2.478     31.20    688.19
         N          3.134            2.478     31.22    688.70
         N          3.134            2.478     31.22    688.70
         N          3.139            2.478     31.22    688.66
         N          3.138            2.478     31.22    688.66
         N          3.137            2.478     31.22    688.67
         N          3.139            2.478     31.22    688.66
         N          3.134            2.478     31.22    688.70
         B          3.368            3.039     62.87   2505.11
         B          3.362            3.039     62.87   2505.29
         B          3.338            3.039     62.89   2505.95
         B          3.337            3.039     62.89   2505.96
         B          3.336            3.039     62.89   2506.00
         B          3.368            3.039     62.87   2505.11
         N          3.137            2.478     31.22    688.67
         B          3.336            3.039     62.89   2505.99
         B          3.375            3.039     62.86   2504.89
         B          3.336            3.039     62.89   2506.00
         N          3.138            2.478     31.22    688.66
         N          3.204            2.478     31.20    688.19
         N          3.137            2.478     31.22    688.67
         N          3.137            2.478     31.22    688.67
         N          3.134            2.478     31.22    688.70
         N          3.134            2.478     31.22    688.70
         B          3.336            3.039     62.89   2506.00
         Cr1        0.809            3.252   1203.19 111040.84
         Cr2        0.809            3.252   1203.19 111040.81

         Molecular C6 ( Ry / a.u.^6 ) =     77074.63

     Using Slab Decomposition

     bravais-lattice index     =            4
     lattice parameter (alat)  =      18.9275  a.u.
     unit-cell volume          =   10553.3021 (a.u.)^3
     number of atoms/cell      =           34
     number of atomic types    =            4
     number of electrons       =       156.00
     number of Kohn-Sham states=           94
     kinetic-energy cutoff     =      48.0000  Ry
     charge density cutoff     =     457.0000  Ry
     scf convergence threshold =      1.0E-07
     mixing beta               =       0.5000
     number of iterations used =            8  plain     mixing
     Exchange-correlation= SLA  PW   PBX  PBC
                           (   1   4   3   4   0   0   0)

     celldm(1)=  18.927497  celldm(2)=   0.000000  celldm(3)=   1.797125
     celldm(4)=   0.000000  celldm(5)=   0.000000  celldm(6)=   0.000000

     crystal axes: (cart. coord. in units of alat)
               a(1) = (   1.000000   0.000000   0.000000 )
               a(2) = (  -0.500000   0.866025   0.000000 )
               a(3) = (   0.000000   0.000000   1.797125 )

     reciprocal axes: (cart. coord. in units 2 pi/alat)
               b(1) = (  1.000000  0.577350  0.000000 )
               b(2) = (  0.000000  1.154701  0.000000 )
               b(3) = (  0.000000  0.000000  0.556444 )

     PseudoPot. # 1 for B  read from file:
     /home/yueyi/q-e-gpu-qe-gpu-6.7/pseudo/B.pbe-n-kjpaw_psl.1.0.0.UPF
     MD5 check sum: d9c678ba5d3b2fd7b74e61139c9288d8
     Pseudo is Projector augmented-wave + core cor, Zval =  3.0
     Generated using "atomic" code by A. Dal Corso  v.5.1.2
     Shape of augmentation charge: PSQ
     Using radial grid of 1059 points,  4 beta functions with:
                l(1) =   0
                l(2) =   0
                l(3) =   1
                l(4) =   1
     Q(r) pseudized with 0 coefficients

     PseudoPot. # 2 for N  read from file:
     /home/yueyi/q-e-gpu-qe-gpu-6.7/pseudo/N.pbe-n-kjpaw_psl.1.0.0.UPF
     MD5 check sum: e0e4e94a9c4025c5b51bd7d8793849bd
     Pseudo is Projector augmented-wave + core cor, Zval =  5.0
     Generated using "atomic" code by A. Dal Corso  v.5.1.2
     Shape of augmentation charge: PSQ
     Using radial grid of 1085 points,  4 beta functions with:
                l(1) =   0
                l(2) =   0
                l(3) =   1
                l(4) =   1
     Q(r) pseudized with 0 coefficients

     PseudoPot. # 3 for Cr read from file:
     /home/yueyi/q-e-gpu-qe-gpu-6.7/pseudo/Cr.pbe-spn-kjpaw_psl.1.0.0.UPF
     MD5 check sum: 198f1a2427a48552563eee314eba32ba
     Pseudo is Projector augmented-wave + core cor, Zval = 14.0
     Generated using &quot;atomic&quot; code by A. Dal Corso  v.6.3
     Shape of augmentation charge: PSQ
     Using radial grid of 1183 points,  6 beta functions with:
                l(1) =   0
                l(2) =   0
                l(3) =   1
                l(4) =   1
                l(5) =   2
                l(6) =   2
     Q(r) pseudized with 0 coefficients

     PseudoPot. # 4 for Cr read from file:
     /home/yueyi/q-e-gpu-qe-gpu-6.7/pseudo/Cr.pbe-spn-kjpaw_psl.1.0.0.UPF
     MD5 check sum: 198f1a2427a48552563eee314eba32ba
     Pseudo is Projector augmented-wave + core cor, Zval = 14.0
     Generated using &quot;atomic&quot; code by A. Dal Corso  v.6.3
     Shape of augmentation charge: PSQ
     Using radial grid of 1183 points,  6 beta functions with:
                l(1) =   0
                l(2) =   0
                l(3) =   1
                l(4) =   1
                l(5) =   2
                l(6) =   2
     Q(r) pseudized with 0 coefficients

     atomic species   valence    mass     pseudopotential
        B              3.00    10.81100     B ( 1.00)
        N              5.00    14.00674     N ( 1.00)
        Cr1           14.00    51.99610     Cr( 1.00)
        Cr2           14.00    51.99610     Cr( 1.00)

     Starting magnetic structure
     atomic species   magnetization
        B            0.000
        N            0.000
        Cr1          1.000
        Cr2          1.000

     No symmetry found

   Cartesian axes

     site n.     atom                  positions (alat units)
         1           B   tau(   1) = (  -0.1250000   0.2165064   0.8985623  )
         2           B   tau(   2) = (   0.3750000   0.6495191   0.8985623  )
         3           B   tau(   3) = (   0.2500000   0.0000000   0.8985623  )
         4           B   tau(   4) = (   0.7500000   0.0000000   0.8985623  )
         5           B   tau(   5) = (   0.1250000   0.2165064   0.8985623  )
         6           B   tau(   6) = (  -0.3750000   0.6495191   0.8985623  )
         7           N   tau(   7) = (   0.7500005   0.2886748   0.8985623  )
         8           N   tau(   8) = (   0.3750005   0.5051812   0.8985623  )
         9           N   tau(   9) = (   0.3750005   0.0721685   0.8985623  )
        10           N   tau(  10) = (   0.6250005   0.0721685   0.8985623  )
        11           N   tau(  11) = (   0.2500005   0.2886748   0.8985623  )
        12           N   tau(  12) = (   0.6250005   0.5051812   0.8985623  )
        13           N   tau(  13) = (   0.0000005   0.2886748   0.8985623  )
        14           N   tau(  14) = (   0.2500005   0.7216875   0.8985623  )
        15           N   tau(  15) = (  -0.2499995   0.7216875   0.8985623  )
        16           B   tau(  16) = (   0.0000000   0.4330127   0.8985623  )
        17           B   tau(  17) = (   0.1250000   0.6495191   0.8985623  )
        18           B   tau(  18) = (  -0.1250000   0.6495191   0.8985623  )
        19           B   tau(  19) = (   0.3750000   0.2165064   0.8985623  )
        20           B   tau(  20) = (   0.6250000   0.2165064   0.8985623  )
        21           B   tau(  21) = (   0.5000000   0.4330127   0.8985623  )
        22           N   tau(  22) = (   0.5000005   0.2886748   0.8985623  )
        23           B   tau(  23) = (  -0.2500000   0.4330127   0.8985623  )
        24           B   tau(  24) = (   0.2500000   0.4330127   0.8985623  )
        25           B   tau(  25) = (   0.5000000   0.0000000   0.8985623  )
        26           N   tau(  26) = (  -0.1249995   0.5051812   0.8985623  )
        27           N   tau(  27) = (   0.1250005   0.5051812   0.8985623  )
        28           N   tau(  28) = (   0.0000005   0.7216875   0.8985623  )
        29           N   tau(  29) = (   0.5000005   0.7216875   0.8985623  )
        30           N   tau(  30) = (   0.1250005   0.0721685   0.8985623  )
        31           N   tau(  31) = (   0.8750005   0.0721685   0.8985623  )
        32           B   tau(  32) = (   0.0000000   0.0000000   0.8985623  )
        33           Cr1 tau(  33) = (   0.1083335   0.5051812   1.1861022  )
        34           Cr2 tau(  34) = (   0.3916668   0.5051812   1.1861022  )

     number of k points=    15  Gaussian smearing, width (Ry)=  0.0000
                       cart. coord. in units 2pi/alat
        k(    1) = (   0.1666667   0.2886751   0.0000000), wk =   0.0740741
        k(    2) = (   0.1666667  -0.4811252   0.0000000), wk =   0.0740741
        k(    3) = (   0.1666667  -0.0962250   0.0000000), wk =   0.0740741
        k(    4) = (  -0.5000000  -0.8660254   0.0000000), wk =   0.0370370
        k(    5) = (  -0.1666667   0.2886751   0.0000000), wk =   0.0740741
        k(    6) = (   0.3333333   0.0000000   0.0000000), wk =   0.0740741
        k(    7) = (  -0.1666667  -0.4811252   0.0000000), wk =   0.0740741
        k(    8) = (   0.5000000  -0.0962250   0.0000000), wk =   0.0740741
        k(    9) = (  -0.3333333  -0.3849002   0.0000000), wk =   0.0740741
        k(   10) = (   0.5000000   0.0962250   0.0000000), wk =   0.0740741
        k(   11) = (  -0.3333333   0.3849002   0.0000000), wk =   0.0740741
        k(   12) = (  -0.1666667  -0.0962250   0.0000000), wk =   0.0740741
        k(   13) = (  -0.0000000  -0.1924501   0.0000000), wk =   0.0740741
        k(   14) = (   0.5000000  -0.8660254   0.0000000), wk =   0.0370370
        k(   15) = (  -1.0000000   0.0000000   0.0000000), wk =   0.0370370

     Initial potential from superposition of free atoms

     starting charge  155.99382, renormalised to  156.00000

     negative rho (up, down):  6.854E-03 4.655E-04
     Starting wfcs are  148 randomized atomic wfcs
     Checking if some PAW data can be deallocated...

     Self-consistent Calculation

     iteration #  1     ecut=    48.00 Ry     beta= 0.50
     Davidson diagonalization with overlap
     ethr =  1.00E-02,  avg # of iterations =  2.7

     negative rho (up, down):  4.977E-03 2.829E-03

     total energy              =   -1130.76328949 Ry
     estimated scf accuracy    <      11.28662179 Ry

     total magnetization       =    12.00 Bohr mag/cell
     absolute magnetization    =    12.14 Bohr mag/cell

[...]

     total energy              =   -1133.82454490 Ry
     estimated scf accuracy    <       0.00000011 Ry

[...]

     iteration # 16     ecut=    48.00 Ry     beta= 0.50
     Davidson diagonalization with overlap
     ethr =  6.97E-11,  avg # of iterations =  4.0

     negative rho (up, down):  3.105E-03 3.809E-03

     Magnetic moment per site:
     atom:    1    charge:    0.8804    magn:    0.0003    constr:    0.0000
     atom:    2    charge:    0.8802    magn:    0.0010    constr:    0.0000
     atom:    3    charge:    0.8802    magn:    0.0001    constr:    0.0000
     atom:    4    charge:    0.8801    magn:    0.0003    constr:    0.0000
     atom:    5    charge:    0.8800    magn:    0.0003    constr:    0.0000
     atom:    6    charge:    0.8806    magn:    0.0002    constr:    0.0000
     atom:    7    charge:    2.8609    magn:    0.0007    constr:    0.0000
     atom:    8    charge:    2.8616    magn:    0.0075    constr:    0.0000
     atom:    9    charge:    2.8609    magn:    0.0001    constr:    0.0000
     atom:   10    charge:    2.8609    magn:    0.0004    constr:    0.0000
     atom:   11    charge:    2.8604    magn:    0.0032    constr:    0.0000
     atom:   12    charge:    2.8608    magn:    0.0019    constr:    0.0000
     atom:   13    charge:    2.8596    magn:    0.0030    constr:    0.0000
     atom:   14    charge:    2.8593    magn:    0.0037    constr:    0.0000
     atom:   15    charge:    2.8600    magn:    0.0000    constr:    0.0000
     atom:   16    charge:    0.8810    magn:    0.0008    constr:    0.0000
     atom:   17    charge:    0.8799    magn:    0.0010    constr:    0.0000
     atom:   18    charge:    0.8803    magn:    0.0002    constr:    0.0000
     atom:   19    charge:    0.8794    magn:    0.0003    constr:    0.0000
     atom:   20    charge:    0.8798    magn:    0.0003    constr:    0.0000
     atom:   21    charge:    0.8807    magn:    0.0008    constr:    0.0000
     atom:   22    charge:    2.8609    magn:    0.0030    constr:    0.0000
     atom:   23    charge:    0.8802    magn:    0.0004    constr:    0.0000
     atom:   24    charge:    0.8788    magn:    0.0016    constr:    0.0000
     atom:   25    charge:    0.8798    magn:    0.0004    constr:    0.0000
     atom:   26    charge:    2.8597    magn:    0.0019    constr:    0.0000
     atom:   27    charge:    2.8604    magn:    0.0075    constr:    0.0000
     atom:   28    charge:    2.8597    magn:    0.0026    constr:    0.0000
     atom:   29    charge:    2.8595    magn:    0.0026    constr:    0.0000
     atom:   30    charge:    2.8596    magn:    0.0001    constr:    0.0000
     atom:   31    charge:    2.8595    magn:    0.0004    constr:    0.0000
     atom:   32    charge:    0.8801    magn:    0.0004    constr:    0.0000
     atom:   33    charge:   12.5289    magn:    4.2336    constr:    0.0000
     atom:   34    charge:   12.5287    magn:    4.2334    constr:    0.0000

     End of self-consistent calculation

 ------ SPIN UP ------------

          k = 0.1667 0.2887 0.0000 ( 59267 PWs)   bands (ev):

   -72.8043 -72.7962 -44.3393 -44.2594 -44.2314 -44.2236 -44.1731 -44.1652
   -21.3229 -20.7404 -20.7237 -20.1786 -20.1701 -19.6635 -19.6507 -19.1724
   -18.7819 -18.7602 -18.5267 -18.5233 -18.2708 -18.1563 -18.1411 -17.9201
   -12.5585 -12.2793 -12.2758 -11.8934 -11.8872 -11.7306 -11.2678 -11.2573
   -10.4642 -10.4406 -10.1919 -10.1830  -9.6635  -9.6585  -8.9347  -8.8995
    -8.8963  -8.8405  -8.8292  -8.6670  -8.2670  -8.1587  -8.0871  -7.9026
    -7.8975  -7.5127  -7.5073  -7.3755  -7.3423  -7.2805  -7.2756  -7.0287
    -7.0271  -6.6626  -6.6053  -6.2258  -6.2230  -5.9581  -5.4892  -5.4096
    -5.3480  -5.2705  -4.9910  -4.9805  -4.5980  -4.4339  -4.4047  -4.0575
    -2.7828  -1.9761  -1.9601  -1.7609  -1.6074  -1.4528  -1.4455  -1.4328
    -1.3100  -1.2738  -1.1423  -0.6629   0.6584   0.7992   1.1441   1.2158
     1.2402   1.4004   1.4708   1.5234   1.5890   1.8324

[...]

          k =-0.5000-0.8660 0.0000 ( 59292 PWs)   bands (ev):

[...]

 ------ SPIN DOWN ----------

[...]

          k = 0.5000-0.8660 0.0000 ( 59292 PWs)   bands (ev):

[...]

          k =-1.0000 0.0000 0.0000 ( 59292 PWs)   bands (ev):

   -68.6097 -68.6004 -40.2537 -40.1590 -40.0825 -40.0731 -39.9690 -39.9595
   -21.1579 -21.0731 -20.5456 -20.5322 -19.5055 -19.4996 -19.4734 -19.4555
   -19.0902 -19.0257 -18.4820 -18.3696 -18.3654 -18.3294 -17.8628 -17.8531
   -12.2049 -12.1362 -12.1053 -12.0853 -11.9499 -11.9390 -11.4281 -11.3664
   -10.3179 -10.3177 -10.1973 -10.1945 -10.1876 -10.1866  -8.7108  -8.6659
    -8.6190  -8.5926  -8.5701  -8.5403  -7.9544  -7.9423  -7.9301  -7.9270
    -7.8748  -7.8719  -7.8535  -7.8259  -7.5942  -7.5207  -6.6786  -6.6724
    -6.4296  -6.4090  -6.3554  -6.3275  -6.2855  -6.2292  -5.8111  -5.7238
    -5.6445  -5.5779  -4.9253  -4.7562  -4.7225  -4.6859  -3.9473  -3.9324
    -1.3409   0.5834   0.7260   0.8926   0.9236   1.0931   1.2923   1.3148
     1.3870   1.4059   1.5438   1.6012   1.7158   1.7771   1.9025   2.0132
     2.0590   2.1786   2.2324   2.2385   2.4155   2.4585

     the Fermi energy is    -1.0694 ev

!    total energy              =   -1133.82454495 Ry

     total all-electron energy =     -6753.500248 Ry
     estimated scf accuracy    <       0.00000002 Ry
     smearing contrib. (-TS)   =      -0.00000000 Ry
     internal energy E=F+TS    =   -1133.82454495 Ry

     The total energy is F=E-TS. E is the sum of the following terms:
     one-electron contribution =   -4018.56329254 Ry
     hartree contribution      =    2037.22448476 Ry
     xc contribution           =    -186.04663251 Ry
     ewald contribution        =    1392.93783434 Ry
     DFT-D3 Dispersion         =      -0.13425675 Ry
     one-center paw contrib.   =    -359.24268226 Ry

     total magnetization       =    10.00 Bohr mag/cell
     absolute magnetization    =    10.01 Bohr mag/cell

     convergence has been achieved in  16 iterations

     Writing output data file ./mytmp/Crdimer0.66.save/

     General routines

     Parallel routines

   This run was terminated on:   1: 1:35  28Mar2021

   JOB DONE.