     Program PWSCF v.6.7MaX starts on 28Mar2021 at  1: 1:35

     R & G space division:  proc/nbgrp/npool/nimage =      16
     Reading input from Crdimer0.67.scf.in

     Current dimensions of program PWSCF are:
     Max number of different atomic species (ntypx) = 10
     Max number of k-points (npk) =  40000
     Max angular momentum in pseudopotentials (lmaxx) =  3
     file N.pbe-n-kjpaw_psl.1.0.0.UPF: wavefunction(s)  2S renormalized
     file Cr.pbe-spn-kjpaw_psl.1.0.0.UPF: wavefunction(s)  3S 3P 3D renormalized
     file Cr.pbe-spn-kjpaw_psl.1.0.0.UPF: wavefunction(s)  3S 3P 3D renormalized

     Parameters for DFT-D3 Dispersion Correction:
       Reference C6 values for interpolation:

         atom   Coordination number   C6
         B          0.000           214.36
         B          0.971           150.74
         B          1.944           106.23
         B          2.913            62.89
         B          4.586            56.06
         N          0.000            50.54
         N          0.994            44.25
         N          2.014            39.35
         N          2.990            31.16
         Cr1        0.000          1381.48
         Cr1        1.827           571.38
         Cr1       10.619           306.69
         Cr2        0.000          1381.48
         Cr2        1.827           571.38
         Cr2       10.619           306.69

       Values used:

         atom   Coordination number  R0_AB[au]  C6      C8
         B          3.335            3.039     62.89   2506.00
         B          3.350            3.039     62.88   2505.62
         B          3.335            3.039     62.89   2506.01
         B          3.336            3.039     62.89   2506.00
         B          3.337            3.039     62.89   2505.97
         B          3.337            3.039     62.89   2505.97
         N          3.134            2.478     31.22    688.70
         N          3.168            2.478     31.21    688.42
         N          3.134            2.478     31.22    688.70
         N          3.134            2.478     31.22    688.70
         N          3.137            2.478     31.22    688.67
         N          3.136            2.478     31.22    688.67
         N          3.136            2.478     31.22    688.68
         N          3.137            2.478     31.22    688.67
         N          3.134            2.478     31.22    688.70
         B          3.353            3.039     62.88   2505.55
         B          3.350            3.039     62.88   2505.62
         B          3.337            3.039     62.89   2505.97
         B          3.337            3.039     62.89   2505.97
         B          3.335            3.039     62.89   2506.00
         B          3.353            3.039     62.88   2505.55
         N          3.136            2.478     31.22    688.68
         B          3.336            3.039     62.89   2505.99
         B          3.358            3.039     62.88   2505.40
         B          3.335            3.039     62.89   2506.00
         N          3.136            2.478     31.22    688.67
         N          3.168            2.478     31.21    688.42
         N          3.136            2.478     31.22    688.68
         N          3.136            2.478     31.22    688.68
         N          3.134            2.478     31.22    688.70
         N          3.134            2.478     31.22    688.70
         B          3.335            3.039     62.89   2506.00
         Cr1        0.731            3.252   1315.06 121365.58
         Cr2        0.731            3.252   1315.06 121365.57

         Molecular C6 ( Ry / a.u.^6 ) =     78400.44

     Using Slab Decomposition

     bravais-lattice index     =            4
     lattice parameter (alat)  =      18.9275  a.u.
     unit-cell volume          =   10553.3021 (a.u.)^3
     number of atoms/cell      =           34
     number of atomic types    =            4
     number of electrons       =       156.00
     number of Kohn-Sham states=           94
     kinetic-energy cutoff     =      48.0000  Ry
     charge density cutoff     =     457.0000  Ry
     scf convergence threshold =      1.0E-07
     mixing beta               =       0.5000
     number of iterations used =            8  plain     mixing
     Exchange-correlation= SLA  PW   PBX  PBC
                           (   1   4   3   4   0   0   0)

     celldm(1)=  18.927497  celldm(2)=   0.000000  celldm(3)=   1.797125
     celldm(4)=   0.000000  celldm(5)=   0.000000  celldm(6)=   0.000000

     crystal axes: (cart. coord. in units of alat)
               a(1) = (   1.000000   0.000000   0.000000 )
               a(2) = (  -0.500000   0.866025   0.000000 )
               a(3) = (   0.000000   0.000000   1.797125 )

     reciprocal axes: (cart. coord. in units 2 pi/alat)
               b(1) = (  1.000000  0.577350  0.000000 )
               b(2) = (  0.000000  1.154701  0.000000 )
               b(3) = (  0.000000  0.000000  0.556444 )

     PseudoPot. # 1 for B  read from file:
     /home/yueyi/q-e-gpu-qe-gpu-6.7/pseudo/B.pbe-n-kjpaw_psl.1.0.0.UPF
     MD5 check sum: d9c678ba5d3b2fd7b74e61139c9288d8
     Pseudo is Projector augmented-wave + core cor, Zval =  3.0
     Generated using "atomic" code by A. Dal Corso  v.5.1.2
     Shape of augmentation charge: PSQ
     Using radial grid of 1059 points,  4 beta functions with:
                l(1) =   0
                l(2) =   0
                l(3) =   1
                l(4) =   1
     Q(r) pseudized with 0 coefficients

     PseudoPot. # 2 for N  read from file:
     /home/yueyi/q-e-gpu-qe-gpu-6.7/pseudo/N.pbe-n-kjpaw_psl.1.0.0.UPF
     MD5 check sum: e0e4e94a9c4025c5b51bd7d8793849bd
     Pseudo is Projector augmented-wave + core cor, Zval =  5.0
     Generated using "atomic" code by A. Dal Corso  v.5.1.2
     Shape of augmentation charge: PSQ
     Using radial grid of 1085 points,  4 beta functions with:
                l(1) =   0
                l(2) =   0
                l(3) =   1
                l(4) =   1
     Q(r) pseudized with 0 coefficients

     PseudoPot. # 3 for Cr read from file:
     /home/yueyi/q-e-gpu-qe-gpu-6.7/pseudo/Cr.pbe-spn-kjpaw_psl.1.0.0.UPF
     MD5 check sum: 198f1a2427a48552563eee314eba32ba
     Pseudo is Projector augmented-wave + core cor, Zval = 14.0
     Generated using &quot;atomic&quot; code by A. Dal Corso  v.6.3
     Shape of augmentation charge: PSQ
     Using radial grid of 1183 points,  6 beta functions with:
                l(1) =   0
                l(2) =   0
                l(3) =   1
                l(4) =   1
                l(5) =   2
                l(6) =   2
     Q(r) pseudized with 0 coefficients

     PseudoPot. # 4 for Cr read from file:
     /home/yueyi/q-e-gpu-qe-gpu-6.7/pseudo/Cr.pbe-spn-kjpaw_psl.1.0.0.UPF
     MD5 check sum: 198f1a2427a48552563eee314eba32ba
     Pseudo is Projector augmented-wave + core cor, Zval = 14.0
     Generated using &quot;atomic&quot; code by A. Dal Corso  v.6.3
     Shape of augmentation charge: PSQ
     Using radial grid of 1183 points,  6 beta functions with:
                l(1) =   0
                l(2) =   0
                l(3) =   1
                l(4) =   1
                l(5) =   2
                l(6) =   2
     Q(r) pseudized with 0 coefficients

     atomic species   valence    mass     pseudopotential
        B              3.00    10.81100     B ( 1.00)
        N              5.00    14.00674     N ( 1.00)
        Cr1           14.00    51.99610     Cr( 1.00)
        Cr2           14.00    51.99610     Cr( 1.00)

     Starting magnetic structure
     atomic species   magnetization
        B            0.000
        N            0.000
        Cr1          1.000
        Cr2          1.000

     No symmetry found

   Cartesian axes

     site n.     atom                  positions (alat units)
         1           B   tau(   1) = (  -0.1250000   0.2165064   0.8985623  )
         2           B   tau(   2) = (   0.3750000   0.6495191   0.8985623  )
         3           B   tau(   3) = (   0.2500000   0.0000000   0.8985623  )
         4           B   tau(   4) = (   0.7500000   0.0000000   0.8985623  )
         5           B   tau(   5) = (   0.1250000   0.2165064   0.8985623  )
         6           B   tau(   6) = (  -0.3750000   0.6495191   0.8985623  )
         7           N   tau(   7) = (   0.7500005   0.2886748   0.8985623  )
         8           N   tau(   8) = (   0.3750005   0.5051812   0.8985623  )
         9           N   tau(   9) = (   0.3750005   0.0721685   0.8985623  )
        10           N   tau(  10) = (   0.6250005   0.0721685   0.8985623  )
        11           N   tau(  11) = (   0.2500005   0.2886748   0.8985623  )
        12           N   tau(  12) = (   0.6250005   0.5051812   0.8985623  )
        13           N   tau(  13) = (   0.0000005   0.2886748   0.8985623  )
        14           N   tau(  14) = (   0.2500005   0.7216875   0.8985623  )
        15           N   tau(  15) = (  -0.2499995   0.7216875   0.8985623  )
        16           B   tau(  16) = (   0.0000000   0.4330127   0.8985623  )
        17           B   tau(  17) = (   0.1250000   0.6495191   0.8985623  )
        18           B   tau(  18) = (  -0.1250000   0.6495191   0.8985623  )
        19           B   tau(  19) = (   0.3750000   0.2165064   0.8985623  )
        20           B   tau(  20) = (   0.6250000   0.2165064   0.8985623  )
        21           B   tau(  21) = (   0.5000000   0.4330127   0.8985623  )
        22           N   tau(  22) = (   0.5000005   0.2886748   0.8985623  )
        23           B   tau(  23) = (  -0.2500000   0.4330127   0.8985623  )
        24           B   tau(  24) = (   0.2500000   0.4330127   0.8985623  )
        25           B   tau(  25) = (   0.5000000   0.0000000   0.8985623  )
        26           N   tau(  26) = (  -0.1249995   0.5051812   0.8985623  )
        27           N   tau(  27) = (   0.1250005   0.5051812   0.8985623  )
        28           N   tau(  28) = (   0.0000005   0.7216875   0.8985623  )
        29           N   tau(  29) = (   0.5000005   0.7216875   0.8985623  )
        30           N   tau(  30) = (   0.1250005   0.0721685   0.8985623  )
        31           N   tau(  31) = (   0.8750005   0.0721685   0.8985623  )
        32           B   tau(  32) = (   0.0000000   0.0000000   0.8985623  )
        33           Cr1 tau(  33) = (   0.1083335   0.5051812   1.2040735  )
        34           Cr2 tau(  34) = (   0.3916668   0.5051812   1.2040735  )

     number of k points=    15  Gaussian smearing, width (Ry)=  0.0000
                       cart. coord. in units 2pi/alat
        k(    1) = (   0.1666667   0.2886751   0.0000000), wk =   0.0740741
        k(    2) = (   0.1666667  -0.4811252   0.0000000), wk =   0.0740741
        k(    3) = (   0.1666667  -0.0962250   0.0000000), wk =   0.0740741
        k(    4) = (  -0.5000000  -0.8660254   0.0000000), wk =   0.0370370
        k(    5) = (  -0.1666667   0.2886751   0.0000000), wk =   0.0740741
        k(    6) = (   0.3333333   0.0000000   0.0000000), wk =   0.0740741
        k(    7) = (  -0.1666667  -0.4811252   0.0000000), wk =   0.0740741
        k(    8) = (   0.5000000  -0.0962250   0.0000000), wk =   0.0740741
        k(    9) = (  -0.3333333  -0.3849002   0.0000000), wk =   0.0740741
        k(   10) = (   0.5000000   0.0962250   0.0000000), wk =   0.0740741
        k(   11) = (  -0.3333333   0.3849002   0.0000000), wk =   0.0740741
        k(   12) = (  -0.1666667  -0.0962250   0.0000000), wk =   0.0740741
        k(   13) = (  -0.0000000  -0.1924501   0.0000000), wk =   0.0740741
        k(   14) = (   0.5000000  -0.8660254   0.0000000), wk =   0.0370370
        k(   15) = (  -1.0000000   0.0000000   0.0000000), wk =   0.0370370

     Initial potential from superposition of free atoms

     starting charge  155.99382, renormalised to  156.00000

     negative rho (up, down):  6.711E-03 4.655E-04
     Starting wfcs are  148 randomized atomic wfcs
     Checking if some PAW data can be deallocated...

     Self-consistent Calculation

     iteration #  1     ecut=    48.00 Ry     beta= 0.50
     Davidson diagonalization with overlap
     ethr =  1.00E-02,  avg # of iterations =  2.7

     negative rho (up, down):  4.878E-03 2.889E-03

     total energy              =   -1130.74251882 Ry
     estimated scf accuracy    <      11.35060698 Ry

     total magnetization       =    12.00 Bohr mag/cell
     absolute magnetization    =    12.16 Bohr mag/cell

[...]

     iteration #  9     ecut=    48.00 Ry     beta= 0.50
     Davidson diagonalization with overlap
     c_bands:  2 eigenvalues not converged
     c_bands:  2 eigenvalues not converged
     ethr =  9.29E-07,  avg # of iterations =  9.4

[...]

     total energy              =   -1133.82803839 Ry
     estimated scf accuracy    <       0.00000014 Ry

[...]

     iteration # 15     ecut=    48.00 Ry     beta= 0.50
     Davidson diagonalization with overlap
     ethr =  8.66E-11,  avg # of iterations =  4.3

     negative rho (up, down):  3.101E-03 3.804E-03

     Magnetic moment per site:
     atom:    1    charge:    0.8804    magn:    0.0002    constr:    0.0000
     atom:    2    charge:    0.8801    magn:    0.0005    constr:    0.0000
     atom:    3    charge:    0.8803    magn:    0.0001    constr:    0.0000
     atom:    4    charge:    0.8802    magn:    0.0001    constr:    0.0000
     atom:    5    charge:    0.8801    magn:    0.0002    constr:    0.0000
     atom:    6    charge:    0.8807    magn:    0.0001    constr:    0.0000
     atom:    7    charge:    2.8609    magn:    0.0004    constr:    0.0000
     atom:    8    charge:    2.8612    magn:    0.0072    constr:    0.0000
     atom:    9    charge:    2.8609    magn:    0.0001    constr:    0.0000
     atom:   10    charge:    2.8609    magn:    0.0002    constr:    0.0000
     atom:   11    charge:    2.8605    magn:    0.0023    constr:    0.0000
     atom:   12    charge:    2.8609    magn:    0.0015    constr:    0.0000
     atom:   13    charge:    2.8597    magn:    0.0022    constr:    0.0000
     atom:   14    charge:    2.8595    magn:    0.0026    constr:    0.0000
     atom:   15    charge:    2.8600    magn:    0.0001    constr:    0.0000
     atom:   16    charge:    0.8806    magn:    0.0002    constr:    0.0000
     atom:   17    charge:    0.8798    magn:    0.0005    constr:    0.0000
     atom:   18    charge:    0.8803    magn:    0.0001    constr:    0.0000
     atom:   19    charge:    0.8795    magn:    0.0002    constr:    0.0000
     atom:   20    charge:    0.8799    magn:    0.0002    constr:    0.0000
     atom:   21    charge:    0.8803    magn:    0.0002    constr:    0.0000
     atom:   22    charge:    2.8610    magn:    0.0022    constr:    0.0000
     atom:   23    charge:    0.8803    magn:    0.0002    constr:    0.0000
     atom:   24    charge:    0.8788    magn:    0.0007    constr:    0.0000
     atom:   25    charge:    0.8799    magn:    0.0002    constr:    0.0000
     atom:   26    charge:    2.8597    magn:    0.0015    constr:    0.0000
     atom:   27    charge:    2.8600    magn:    0.0072    constr:    0.0000
     atom:   28    charge:    2.8597    magn:    0.0019    constr:    0.0000
     atom:   29    charge:    2.8595    magn:    0.0019    constr:    0.0000
     atom:   30    charge:    2.8596    magn:    0.0001    constr:    0.0000
     atom:   31    charge:    2.8596    magn:    0.0002    constr:    0.0000
     atom:   32    charge:    0.8802    magn:    0.0002    constr:    0.0000
     atom:   33    charge:   12.5208    magn:    4.2369    constr:    0.0000
     atom:   34    charge:   12.5207    magn:    4.2370    constr:    0.0000

     End of self-consistent calculation

 ------ SPIN UP ------------

          k = 0.1667 0.2887 0.0000 ( 59267 PWs)   bands (ev):

   -72.8826 -72.8745 -44.4326 -44.3528 -44.2909 -44.2831 -44.2500 -44.2422
   -21.2536 -20.6671 -20.6622 -20.1094 -20.1047 -19.5926 -19.5902 -19.1058
   -18.7059 -18.6975 -18.4615 -18.4589 -18.2018 -18.0911 -18.0831 -17.8558
   -12.4906 -12.2111 -12.2091 -11.8264 -11.8239 -11.6646 -11.1979 -11.1952
   -10.3978 -10.3741 -10.1235 -10.1209  -9.5955  -9.5942  -8.8439  -8.8320
    -8.8302  -8.7716  -8.7685  -8.6024  -8.2030  -8.0628  -8.0186  -7.8359
    -7.8333  -7.4452  -7.4429  -7.2881  -7.2671  -7.2142  -7.2129  -6.9645
    -6.9634  -6.5757  -6.5408  -6.1603  -6.1590  -5.8786  -5.4247  -5.3111
    -5.2769  -5.2064  -4.9170  -4.9086  -4.5149  -4.3625  -4.3430  -3.9857
    -2.8784  -2.0415  -2.0276  -1.8356  -1.6537  -1.5613  -1.4920  -1.4829
    -1.3779  -1.3573  -1.2850  -0.7382   0.6380   0.8297   1.0956   1.1972
     1.2813   1.4592   1.5172   1.5755   1.6205   1.7880

[...]

          k =-0.5000-0.8660 0.0000 ( 59292 PWs)   bands (ev):

[...]

 ------ SPIN DOWN ----------

[...]

          k = 0.5000-0.8660 0.0000 ( 59292 PWs)   bands (ev):

[...]

          k =-1.0000 0.0000 0.0000 ( 59292 PWs)   bands (ev):

   -68.6860 -68.6767 -40.3637 -40.2692 -40.1208 -40.1115 -40.0437 -40.0342
   -21.0792 -21.0201 -20.4772 -20.4668 -19.4333 -19.4289 -19.4135 -19.3987
   -19.0170 -18.9706 -18.3881 -18.3105 -18.3076 -18.2805 -17.7983 -17.7900
   -12.1187 -12.0706 -12.0490 -12.0339 -11.8843 -11.8751 -11.3546 -11.3107
   -10.2461 -10.2450 -10.1340 -10.1339 -10.1276 -10.1269  -8.6131  -8.5860
    -8.5532  -8.5345  -8.5178  -8.4890  -7.8809  -7.8716  -7.8656  -7.8632
    -7.8154  -7.8144  -7.7782  -7.7551  -7.5196  -7.4670  -6.6146  -6.6091
    -6.3448  -6.3284  -6.2933  -6.2700  -6.2136  -6.1733  -5.7310  -5.6665
    -5.5714  -5.5236  -4.8097  -4.6923  -4.6669  -4.6391  -3.8786  -3.8655
    -1.4447   0.5063   0.8182   0.9167   1.0239   1.1199   1.2214   1.2693
     1.3532   1.4941   1.5972   1.6395   1.6695   1.7706   1.8693   1.9339
     2.0768   2.1092   2.1736   2.1767   2.3333   2.3617

     the Fermi energy is    -1.1654 ev

!    total energy              =   -1133.82803855 Ry

     total all-electron energy =     -6753.503742 Ry
     estimated scf accuracy    <       0.00000003 Ry
     smearing contrib. (-TS)   =      -0.00000000 Ry
     internal energy E=F+TS    =   -1133.82803855 Ry

     The total energy is F=E-TS. E is the sum of the following terms:
     one-electron contribution =   -3952.84977749 Ry
     hartree contribution      =    2004.58507028 Ry
     xc contribution           =    -186.01835551 Ry
     ewald contribution        =    1359.83195971 Ry
     DFT-D3 Dispersion         =      -0.13406589 Ry
     one-center paw contrib.   =    -359.24286964 Ry

     total magnetization       =    10.00 Bohr mag/cell
     absolute magnetization    =    10.01 Bohr mag/cell

     convergence has been achieved in  15 iterations

     Writing output data file ./mytmp/Crdimer0.67.save/

     General routines

     Parallel routines

   This run was terminated on:   1:47:36  28Mar2021

   JOB DONE.