     Program PWSCF v.6.7MaX starts on 28Mar2021 at  1:47:36

     R & G space division:  proc/nbgrp/npool/nimage =      16
     Reading input from Crdimer0.68.scf.in

     Current dimensions of program PWSCF are:
     Max number of different atomic species (ntypx) = 10
     Max number of k-points (npk) =  40000
     Max angular momentum in pseudopotentials (lmaxx) =  3
     file N.pbe-n-kjpaw_psl.1.0.0.UPF: wavefunction(s)  2S renormalized
     file Cr.pbe-spn-kjpaw_psl.1.0.0.UPF: wavefunction(s)  3S 3P 3D renormalized
     file Cr.pbe-spn-kjpaw_psl.1.0.0.UPF: wavefunction(s)  3S 3P 3D renormalized

     Parameters for DFT-D3 Dispersion Correction:
       Reference C6 values for interpolation:

         atom   Coordination number   C6
         B          0.000           214.36
         B          0.971           150.74
         B          1.944           106.23
         B          2.913            62.89
         B          4.586            56.06
         N          0.000            50.54
         N          0.994            44.25
         N          2.014            39.35
         N          2.990            31.16
         Cr1        0.000          1381.48
         Cr1        1.827           571.38
         Cr1       10.619           306.69
         Cr2        0.000          1381.48
         Cr2        1.827           571.38
         Cr2       10.619           306.69

       Values used:

         atom   Coordination number  R0_AB[au]  C6      C8
         B          3.335            3.039     62.89   2506.00
         B          3.344            3.039     62.89   2505.78
         B          3.335            3.039     62.89   2506.01
         B          3.336            3.039     62.89   2506.00
         B          3.336            3.039     62.89   2505.98
         B          3.336            3.039     62.89   2505.98
         N          3.134            2.478     31.22    688.70
         N          3.151            2.478     31.21    688.55
         N          3.134            2.478     31.22    688.70
         N          3.134            2.478     31.22    688.70
         N          3.136            2.478     31.22    688.68
         N          3.136            2.478     31.22    688.68
         N          3.135            2.478     31.22    688.68
         N          3.136            2.478     31.22    688.68
         N          3.134            2.478     31.22    688.70
         B          3.345            3.039     62.89   2505.75
         B          3.344            3.039     62.89   2505.78
         B          3.336            3.039     62.89   2505.98
         B          3.336            3.039     62.89   2505.98
         B          3.335            3.039     62.89   2506.00
         B          3.345            3.039     62.89   2505.75
         N          3.135            2.478     31.22    688.68
         B          3.336            3.039     62.89   2506.00
         B          3.349            3.039     62.88   2505.66
         B          3.335            3.039     62.89   2506.00
         N          3.136            2.478     31.22    688.68
         N          3.151            2.478     31.21    688.55
         N          3.135            2.478     31.22    688.68
         N          3.135            2.478     31.22    688.68
         N          3.134            2.478     31.22    688.70
         N          3.134            2.478     31.22    688.70
         B          3.335            3.039     62.89   2506.00
         Cr1        0.691            3.252   1342.89 123933.62
         Cr2        0.691            3.252   1342.89 123933.62

         Molecular C6 ( Ry / a.u.^6 ) =     78724.14

     Using Slab Decomposition

     bravais-lattice index     =            4
     lattice parameter (alat)  =      18.9275  a.u.
     unit-cell volume          =   10553.3021 (a.u.)^3
     number of atoms/cell      =           34
     number of atomic types    =            4
     number of electrons       =       156.00
     number of Kohn-Sham states=           94
     kinetic-energy cutoff     =      48.0000  Ry
     charge density cutoff     =     457.0000  Ry
     scf convergence threshold =      1.0E-07
     mixing beta               =       0.5000
     number of iterations used =            8  plain     mixing
     Exchange-correlation= SLA  PW   PBX  PBC
                           (   1   4   3   4   0   0   0)

     celldm(1)=  18.927497  celldm(2)=   0.000000  celldm(3)=   1.797125
     celldm(4)=   0.000000  celldm(5)=   0.000000  celldm(6)=   0.000000

     crystal axes: (cart. coord. in units of alat)
               a(1) = (   1.000000   0.000000   0.000000 )
               a(2) = (  -0.500000   0.866025   0.000000 )
               a(3) = (   0.000000   0.000000   1.797125 )

     reciprocal axes: (cart. coord. in units 2 pi/alat)
               b(1) = (  1.000000  0.577350  0.000000 )
               b(2) = (  0.000000  1.154701  0.000000 )
               b(3) = (  0.000000  0.000000  0.556444 )

     PseudoPot. # 1 for B  read from file:
     /home/yueyi/q-e-gpu-qe-gpu-6.7/pseudo/B.pbe-n-kjpaw_psl.1.0.0.UPF
     MD5 check sum: d9c678ba5d3b2fd7b74e61139c9288d8
     Pseudo is Projector augmented-wave + core cor, Zval =  3.0
     Generated using "atomic" code by A. Dal Corso  v.5.1.2
     Shape of augmentation charge: PSQ
     Using radial grid of 1059 points,  4 beta functions with:
                l(1) =   0
                l(2) =   0
                l(3) =   1
                l(4) =   1
     Q(r) pseudized with 0 coefficients

     PseudoPot. # 2 for N  read from file:
     /home/yueyi/q-e-gpu-qe-gpu-6.7/pseudo/N.pbe-n-kjpaw_psl.1.0.0.UPF
     MD5 check sum: e0e4e94a9c4025c5b51bd7d8793849bd
     Pseudo is Projector augmented-wave + core cor, Zval =  5.0
     Generated using "atomic" code by A. Dal Corso  v.5.1.2
     Shape of augmentation charge: PSQ
     Using radial grid of 1085 points,  4 beta functions with:
                l(1) =   0
                l(2) =   0
                l(3) =   1
                l(4) =   1
     Q(r) pseudized with 0 coefficients

     PseudoPot. # 3 for Cr read from file:
     /home/yueyi/q-e-gpu-qe-gpu-6.7/pseudo/Cr.pbe-spn-kjpaw_psl.1.0.0.UPF
     MD5 check sum: 198f1a2427a48552563eee314eba32ba
     Pseudo is Projector augmented-wave + core cor, Zval = 14.0
     Generated using &quot;atomic&quot; code by A. Dal Corso  v.6.3
     Shape of augmentation charge: PSQ
     Using radial grid of 1183 points,  6 beta functions with:
                l(1) =   0
                l(2) =   0
                l(3) =   1
                l(4) =   1
                l(5) =   2
                l(6) =   2
     Q(r) pseudized with 0 coefficients

     PseudoPot. # 4 for Cr read from file:
     /home/yueyi/q-e-gpu-qe-gpu-6.7/pseudo/Cr.pbe-spn-kjpaw_psl.1.0.0.UPF
     MD5 check sum: 198f1a2427a48552563eee314eba32ba
     Pseudo is Projector augmented-wave + core cor, Zval = 14.0
     Generated using &quot;atomic&quot; code by A. Dal Corso  v.6.3
     Shape of augmentation charge: PSQ
     Using radial grid of 1183 points,  6 beta functions with:
                l(1) =   0
                l(2) =   0
                l(3) =   1
                l(4) =   1
                l(5) =   2
                l(6) =   2
     Q(r) pseudized with 0 coefficients

     atomic species   valence    mass     pseudopotential
        B              3.00    10.81100     B ( 1.00)
        N              5.00    14.00674     N ( 1.00)
        Cr1           14.00    51.99610     Cr( 1.00)
        Cr2           14.00    51.99610     Cr( 1.00)

     Starting magnetic structure
     atomic species   magnetization
        B            0.000
        N            0.000
        Cr1          1.000
        Cr2          1.000

     No symmetry found

   Cartesian axes

     site n.     atom                  positions (alat units)
         1           B   tau(   1) = (  -0.1250000   0.2165064   0.8985623  )
         2           B   tau(   2) = (   0.3750000   0.6495191   0.8985623  )
         3           B   tau(   3) = (   0.2500000   0.0000000   0.8985623  )
         4           B   tau(   4) = (   0.7500000   0.0000000   0.8985623  )
         5           B   tau(   5) = (   0.1250000   0.2165064   0.8985623  )
         6           B   tau(   6) = (  -0.3750000   0.6495191   0.8985623  )
         7           N   tau(   7) = (   0.7500005   0.2886748   0.8985623  )
         8           N   tau(   8) = (   0.3750005   0.5051812   0.8985623  )
         9           N   tau(   9) = (   0.3750005   0.0721685   0.8985623  )
        10           N   tau(  10) = (   0.6250005   0.0721685   0.8985623  )
        11           N   tau(  11) = (   0.2500005   0.2886748   0.8985623  )
        12           N   tau(  12) = (   0.6250005   0.5051812   0.8985623  )
        13           N   tau(  13) = (   0.0000005   0.2886748   0.8985623  )
        14           N   tau(  14) = (   0.2500005   0.7216875   0.8985623  )
        15           N   tau(  15) = (  -0.2499995   0.7216875   0.8985623  )
        16           B   tau(  16) = (   0.0000000   0.4330127   0.8985623  )
        17           B   tau(  17) = (   0.1250000   0.6495191   0.8985623  )
        18           B   tau(  18) = (  -0.1250000   0.6495191   0.8985623  )
        19           B   tau(  19) = (   0.3750000   0.2165064   0.8985623  )
        20           B   tau(  20) = (   0.6250000   0.2165064   0.8985623  )
        21           B   tau(  21) = (   0.5000000   0.4330127   0.8985623  )
        22           N   tau(  22) = (   0.5000005   0.2886748   0.8985623  )
        23           B   tau(  23) = (  -0.2500000   0.4330127   0.8985623  )
        24           B   tau(  24) = (   0.2500000   0.4330127   0.8985623  )
        25           B   tau(  25) = (   0.5000000   0.0000000   0.8985623  )
        26           N   tau(  26) = (  -0.1249995   0.5051812   0.8985623  )
        27           N   tau(  27) = (   0.1250005   0.5051812   0.8985623  )
        28           N   tau(  28) = (   0.0000005   0.7216875   0.8985623  )
        29           N   tau(  29) = (   0.5000005   0.7216875   0.8985623  )
        30           N   tau(  30) = (   0.1250005   0.0721685   0.8985623  )
        31           N   tau(  31) = (   0.8750005   0.0721685   0.8985623  )
        32           B   tau(  32) = (   0.0000000   0.0000000   0.8985623  )
        33           Cr1 tau(  33) = (   0.1083335   0.5051812   1.2220447  )
        34           Cr2 tau(  34) = (   0.3916668   0.5051812   1.2220447  )

     number of k points=    15  Gaussian smearing, width (Ry)=  0.0000
                       cart. coord. in units 2pi/alat
        k(    1) = (   0.1666667   0.2886751   0.0000000), wk =   0.0740741
        k(    2) = (   0.1666667  -0.4811252   0.0000000), wk =   0.0740741
        k(    3) = (   0.1666667  -0.0962250   0.0000000), wk =   0.0740741
        k(    4) = (  -0.5000000  -0.8660254   0.0000000), wk =   0.0370370
        k(    5) = (  -0.1666667   0.2886751   0.0000000), wk =   0.0740741
        k(    6) = (   0.3333333   0.0000000   0.0000000), wk =   0.0740741
        k(    7) = (  -0.1666667  -0.4811252   0.0000000), wk =   0.0740741
        k(    8) = (   0.5000000  -0.0962250   0.0000000), wk =   0.0740741
        k(    9) = (  -0.3333333  -0.3849002   0.0000000), wk =   0.0740741
        k(   10) = (   0.5000000   0.0962250   0.0000000), wk =   0.0740741
        k(   11) = (  -0.3333333   0.3849002   0.0000000), wk =   0.0740741
        k(   12) = (  -0.1666667  -0.0962250   0.0000000), wk =   0.0740741
        k(   13) = (  -0.0000000  -0.1924501   0.0000000), wk =   0.0740741
        k(   14) = (   0.5000000  -0.8660254   0.0000000), wk =   0.0370370
        k(   15) = (  -1.0000000   0.0000000   0.0000000), wk =   0.0370370

     Initial potential from superposition of free atoms

     starting charge  155.99382, renormalised to  156.00000

     negative rho (up, down):  6.563E-03 4.655E-04
     Starting wfcs are  148 randomized atomic wfcs
     Checking if some PAW data can be deallocated...

     Self-consistent Calculation

     iteration #  1     ecut=    48.00 Ry     beta= 0.50
     Davidson diagonalization with overlap
     ethr =  1.00E-02,  avg # of iterations =  2.7

     negative rho (up, down):  4.770E-03 2.952E-03

     total energy              =   -1130.71839097 Ry
     estimated scf accuracy    <      11.40661895 Ry

     total magnetization       =    12.00 Bohr mag/cell
     absolute magnetization    =    12.17 Bohr mag/cell

[...]

     total energy              =   -1133.82795624 Ry
     estimated scf accuracy    <       0.00000013 Ry

[...]

     iteration # 15     ecut=    48.00 Ry     beta= 0.50
     Davidson diagonalization with overlap
     ethr =  8.57E-11,  avg # of iterations =  4.4

     negative rho (up, down):  3.073E-03 3.774E-03

     Magnetic moment per site:
     atom:    1    charge:    0.8805    magn:    0.0001    constr:    0.0000
     atom:    2    charge:    0.8800    magn:    0.0002    constr:    0.0000
     atom:    3    charge:    0.8804    magn:    0.0000    constr:    0.0000
     atom:    4    charge:    0.8802    magn:    0.0001    constr:    0.0000
     atom:    5    charge:    0.8801    magn:    0.0001    constr:    0.0000
     atom:    6    charge:    0.8807    magn:    0.0000    constr:    0.0000
     atom:    7    charge:    2.8610    magn:    0.0002    constr:    0.0000
     atom:    8    charge:    2.8609    magn:    0.0061    constr:    0.0000
     atom:    9    charge:    2.8610    magn:    0.0001    constr:    0.0000
     atom:   10    charge:    2.8610    magn:    0.0002    constr:    0.0000
     atom:   11    charge:    2.8606    magn:    0.0016    constr:    0.0000
     atom:   12    charge:    2.8609    magn:    0.0011    constr:    0.0000
     atom:   13    charge:    2.8598    magn:    0.0016    constr:    0.0000
     atom:   14    charge:    2.8596    magn:    0.0018    constr:    0.0000
     atom:   15    charge:    2.8600    magn:    0.0001    constr:    0.0000
     atom:   16    charge:    0.8804    magn:   -0.0000    constr:    0.0000
     atom:   17    charge:    0.8797    magn:    0.0002    constr:    0.0000
     atom:   18    charge:    0.8804    magn:    0.0000    constr:    0.0000
     atom:   19    charge:    0.8796    magn:    0.0001    constr:    0.0000
     atom:   20    charge:    0.8799    magn:    0.0001    constr:    0.0000
     atom:   21    charge:    0.8801    magn:   -0.0000    constr:    0.0000
     atom:   22    charge:    2.8611    magn:    0.0016    constr:    0.0000
     atom:   23    charge:    0.8803    magn:    0.0001    constr:    0.0000
     atom:   24    charge:    0.8789    magn:    0.0003    constr:    0.0000
     atom:   25    charge:    0.8800    magn:    0.0001    constr:    0.0000
     atom:   26    charge:    2.8598    magn:    0.0011    constr:    0.0000
     atom:   27    charge:    2.8598    magn:    0.0061    constr:    0.0000
     atom:   28    charge:    2.8598    magn:    0.0014    constr:    0.0000
     atom:   29    charge:    2.8596    magn:    0.0014    constr:    0.0000
     atom:   30    charge:    2.8597    magn:    0.0001    constr:    0.0000
     atom:   31    charge:    2.8596    magn:    0.0002    constr:    0.0000
     atom:   32    charge:    0.8802    magn:    0.0001    constr:    0.0000
     atom:   33    charge:   12.5159    magn:    4.2397    constr:    0.0000
     atom:   34    charge:   12.5158    magn:    4.2397    constr:    0.0000

     End of self-consistent calculation

 ------ SPIN UP ------------

          k = 0.1667 0.2887 0.0000 ( 59267 PWs)   bands (ev):

   -72.9489 -72.9409 -44.5066 -44.4269 -44.3451 -44.3373 -44.3177 -44.3098
   -21.1941 -20.6083 -20.6037 -20.0497 -20.0470 -19.5360 -19.5310 -19.0476
   -18.6437 -18.6404 -18.4037 -18.4018 -18.1418 -18.0338 -18.0291 -17.7985
   -12.4318 -12.1521 -12.1510 -11.7690 -11.7664 -11.6066 -11.1404 -11.1369
   -10.3397 -10.3161 -10.0654 -10.0638  -9.5375  -9.5363  -8.7735  -8.7724
    -8.7692  -8.7154  -8.7101  -8.5451  -8.1462  -7.9824  -7.9589  -7.7776
    -7.7763  -7.3865  -7.3856  -7.2151  -7.2014  -7.1574  -7.1554  -6.9075
    -6.9067  -6.5010  -6.4833  -6.1028  -6.1018  -5.8108  -5.3674  -5.2315
    -5.2151  -5.1493  -4.8520  -4.8453  -4.4450  -4.2982  -4.2870  -3.9227
    -2.9621  -2.0984  -2.0875  -1.9054  -1.7007  -1.6479  -1.5352  -1.5307
    -1.4365  -1.4317  -1.3923  -0.8010   0.6163   0.8437   0.9824   1.2396
     1.3273   1.5177   1.5643   1.6243   1.6594   1.7634

[...]

          k =-0.5000-0.8660 0.0000 ( 59292 PWs)   bands (ev):

[...]

 ------ SPIN DOWN ----------

[...]

          k = 0.5000-0.8660 0.0000 ( 59292 PWs)   bands (ev):

[...]

          k =-1.0000 0.0000 0.0000 ( 59292 PWs)   bands (ev):

   -68.7500 -68.7407 -40.4455 -40.3511 -40.1614 -40.1521 -40.1106 -40.1012
   -21.0127 -20.9715 -20.4181 -20.4096 -19.3715 -19.3681 -19.3593 -19.3472
   -18.9533 -18.9205 -18.3104 -18.2572 -18.2552 -18.2353 -17.7410 -17.7340
   -12.0463 -12.0129 -11.9977 -11.9867 -11.8263 -11.8188 -11.2910 -11.2601
   -10.1851 -10.1834 -10.0790 -10.0777 -10.0737 -10.0721  -8.5316  -8.5179
    -8.4952  -8.4819  -8.4698  -8.4419  -7.8182  -7.8108  -7.8083  -7.8067
    -7.7634  -7.7614  -7.7115  -7.6931  -7.4550  -7.4179  -6.5577  -6.5531
    -6.2727  -6.2597  -6.2374  -6.2182  -6.1508  -6.1225  -5.6610  -5.6145
    -5.5079  -5.4739  -4.7157  -4.6350  -4.6163  -4.5957  -3.8179  -3.8068
    -1.5303   0.4417   0.8617   0.9295   1.1083   1.1258   1.1855   1.2332
     1.3243   1.5706   1.6329   1.6459   1.6810   1.7492   1.8369   1.8734
     2.0488   2.0891   2.1139   2.1283   2.2580   2.2899

     the Fermi energy is    -1.2168 ev

!    total energy              =   -1133.82795643 Ry

     total all-electron energy =     -6753.503659 Ry
     estimated scf accuracy    <       0.00000002 Ry
     smearing contrib. (-TS)   =      -0.00000000 Ry
     internal energy E=F+TS    =   -1133.82795643 Ry

     The total energy is F=E-TS. E is the sum of the following terms:
     one-electron contribution =   -3889.06912556 Ry
     hartree contribution      =    1972.89230256 Ry
     xc contribution           =    -185.99983699 Ry
     ewald contribution        =    1327.72288857 Ry
     DFT-D3 Dispersion         =      -0.13144901 Ry
     one-center paw contrib.   =    -359.24273599 Ry

     total magnetization       =    10.00 Bohr mag/cell
     absolute magnetization    =    10.01 Bohr mag/cell

     convergence has been achieved in  15 iterations

     Writing output data file ./mytmp/Crdimer0.68.save/

     General routines

     Parallel routines

   This run was terminated on:   2:33:33  28Mar2021

   JOB DONE.