     Program PWSCF v.6.7MaX starts on 30Mar2021 at  0:57:15

     R & G space division:  proc/nbgrp/npool/nimage =      48
     Reading input from Crdimer0.3-0.4.scf.in

     Current dimensions of program PWSCF are:
     Max number of different atomic species (ntypx) = 10
     Max number of k-points (npk) =  40000
     Max angular momentum in pseudopotentials (lmaxx) =  3
     file N.pbe-n-kjpaw_psl.1.0.0.UPF: wavefunction(s)  2S renormalized
     file Cr.pbe-spn-kjpaw_psl.1.0.0.UPF: wavefunction(s)  3S 3P 3D renormalized
     file Cr.pbe-spn-kjpaw_psl.1.0.0.UPF: wavefunction(s)  3S 3P 3D renormalized

     Parameters for DFT-D3 Dispersion Correction:
       Reference C6 values for interpolation:

         atom   Coordination number   C6
         B          0.000           214.36
         B          0.971           150.74
         B          1.944           106.23
         B          2.913            62.89
         B          4.586            56.06
         N          0.000            50.54
         N          0.994            44.25
         N          2.014            39.35
         N          2.990            31.16
         Cr1        0.000          1381.48
         Cr1        1.827           571.38
         Cr1       10.619           306.69
         Cr2        0.000          1381.48
         Cr2        1.827           571.38
         Cr2       10.619           306.69

       Values used:

         atom   Coordination number  R0_AB[au]  C6      C8
         B          3.349            3.039     62.88   2505.66
         B          3.336            3.039     62.89   2506.00
         B          3.335            3.039     62.89   2506.01
         B          3.336            3.039     62.89   2506.00
         B          3.340            3.039     62.89   2505.90
         B          3.336            3.039     62.89   2505.99
         N          3.141            2.478     31.22    688.63
         N          3.136            2.478     31.22    688.68
         N          3.134            2.478     31.22    688.69
         N          3.135            2.478     31.22    688.69
         N          3.135            2.478     31.22    688.68
         N          3.140            2.478     31.22    688.64
         N          3.157            2.478     31.21    688.50
         N          3.134            2.478     31.22    688.70
         N          3.134            2.478     31.22    688.70
         B          3.361            3.039     62.87   2505.31
         B          3.336            3.039     62.89   2506.00
         B          3.336            3.039     62.89   2505.99
         B          3.340            3.039     62.89   2505.90
         B          3.349            3.039     62.88   2505.66
         B          3.361            3.039     62.87   2505.31
         N          3.157            2.478     31.21    688.50
         B          3.344            3.039     62.89   2505.79
         B          3.337            3.039     62.89   2505.97
         B          3.336            3.039     62.89   2506.00
         N          3.140            2.478     31.22    688.64
         N          3.136            2.478     31.22    688.68
         N          3.134            2.478     31.22    688.70
         N          3.134            2.478     31.22    688.70
         N          3.134            2.478     31.22    688.69
         N          3.135            2.478     31.22    688.69
         B          3.336            3.039     62.89   2506.00
         Cr1        0.110            3.252   1381.48 127494.68
         Cr2        0.110            3.252   1381.48 127494.68

         Molecular C6 ( Ry / a.u.^6 ) =     79164.75

     bravais-lattice index     =            4
     lattice parameter (alat)  =      18.9275  a.u.
     unit-cell volume          =   10553.3021 (a.u.)^3
     number of atoms/cell      =           34
     number of atomic types    =            4
     number of electrons       =       156.00
     number of Kohn-Sham states=           94
     kinetic-energy cutoff     =      48.0000  Ry
     charge density cutoff     =     457.0000  Ry
     scf convergence threshold =      1.0E-07
     mixing beta               =       0.5000
     number of iterations used =            8  plain     mixing
     Exchange-correlation= SLA  PW   PBX  PBC
                           (   1   4   3   4   0   0   0)

     celldm(1)=  18.927497  celldm(2)=   0.000000  celldm(3)=   1.797125
     celldm(4)=   0.000000  celldm(5)=   0.000000  celldm(6)=   0.000000

     crystal axes: (cart. coord. in units of alat)
               a(1) = (   1.000000   0.000000   0.000000 )
               a(2) = (  -0.500000   0.866025   0.000000 )
               a(3) = (   0.000000   0.000000   1.797125 )

     reciprocal axes: (cart. coord. in units 2 pi/alat)
               b(1) = (  1.000000  0.577350  0.000000 )
               b(2) = (  0.000000  1.154701  0.000000 )
               b(3) = (  0.000000  0.000000  0.556444 )

     PseudoPot. # 1 for B  read from file:
     /home/sf05/q-e-qe-6.7MaX-Release/pseudo/B.pbe-n-kjpaw_psl.1.0.0.UPF
     MD5 check sum: d9c678ba5d3b2fd7b74e61139c9288d8
     Pseudo is Projector augmented-wave + core cor, Zval =  3.0
     Generated using "atomic" code by A. Dal Corso  v.5.1.2
     Shape of augmentation charge: PSQ
     Using radial grid of 1059 points,  4 beta functions with:
                l(1) =   0
                l(2) =   0
                l(3) =   1
                l(4) =   1
     Q(r) pseudized with 0 coefficients

     PseudoPot. # 2 for N  read from file:
     /home/sf05/q-e-qe-6.7MaX-Release/pseudo/N.pbe-n-kjpaw_psl.1.0.0.UPF
     MD5 check sum: e0e4e94a9c4025c5b51bd7d8793849bd
     Pseudo is Projector augmented-wave + core cor, Zval =  5.0
     Generated using "atomic" code by A. Dal Corso  v.5.1.2
     Shape of augmentation charge: PSQ
     Using radial grid of 1085 points,  4 beta functions with:
                l(1) =   0
                l(2) =   0
                l(3) =   1
                l(4) =   1
     Q(r) pseudized with 0 coefficients

     PseudoPot. # 3 for Cr read from file:
     /home/sf05/q-e-qe-6.7MaX-Release/pseudo/Cr.pbe-spn-kjpaw_psl.1.0.0.UPF
     MD5 check sum: 198f1a2427a48552563eee314eba32ba
     Pseudo is Projector augmented-wave + core cor, Zval = 14.0
     Generated using &quot;atomic&quot; code by A. Dal Corso  v.6.3
     Shape of augmentation charge: PSQ
     Using radial grid of 1183 points,  6 beta functions with:
                l(1) =   0
                l(2) =   0
                l(3) =   1
                l(4) =   1
                l(5) =   2
                l(6) =   2
     Q(r) pseudized with 0 coefficients

     PseudoPot. # 4 for Cr read from file:
     /home/sf05/q-e-qe-6.7MaX-Release/pseudo/Cr.pbe-spn-kjpaw_psl.1.0.0.UPF
     MD5 check sum: 198f1a2427a48552563eee314eba32ba
     Pseudo is Projector augmented-wave + core cor, Zval = 14.0
     Generated using &quot;atomic&quot; code by A. Dal Corso  v.6.3
     Shape of augmentation charge: PSQ
     Using radial grid of 1183 points,  6 beta functions with:
                l(1) =   0
                l(2) =   0
                l(3) =   1
                l(4) =   1
                l(5) =   2
                l(6) =   2
     Q(r) pseudized with 0 coefficients

     atomic species   valence    mass     pseudopotential
        B              3.00    10.81100     B ( 1.00)
        N              5.00    14.00674     N ( 1.00)
        Cr1           14.00    51.99610     Cr( 1.00)
        Cr2           14.00    51.99610     Cr( 1.00)

     Starting magnetic structure
     atomic species   magnetization
        B            0.000
        N            0.000
        Cr1          1.000
        Cr2          1.000

     No symmetry found

   Cartesian axes

     site n.     atom                  positions (alat units)
         1           B   tau(   1) = (  -0.1250000   0.2165064   0.8985623  )
         2           B   tau(   2) = (   0.3750000   0.6495191   0.8985623  )
         3           B   tau(   3) = (   0.2500000   0.0000000   0.8985623  )
         4           B   tau(   4) = (   0.7500000   0.0000000   0.8985623  )
         5           B   tau(   5) = (   0.1250000   0.2165064   0.8985623  )
         6           B   tau(   6) = (  -0.3750000   0.6495191   0.8985623  )
         7           N   tau(   7) = (   0.7500005   0.2886748   0.8985623  )
         8           N   tau(   8) = (   0.3750005   0.5051812   0.8985623  )
         9           N   tau(   9) = (   0.3750005   0.0721685   0.8985623  )
        10           N   tau(  10) = (   0.6250005   0.0721685   0.8985623  )
        11           N   tau(  11) = (   0.2500005   0.2886748   0.8985623  )
        12           N   tau(  12) = (   0.6250005   0.5051812   0.8985623  )
        13           N   tau(  13) = (   0.0000005   0.2886748   0.8985623  )
        14           N   tau(  14) = (   0.2500005   0.7216875   0.8985623  )
        15           N   tau(  15) = (  -0.2499995   0.7216875   0.8985623  )
        16           B   tau(  16) = (   0.0000000   0.4330127   0.8985623  )
        17           B   tau(  17) = (   0.1250000   0.6495191   0.8985623  )
        18           B   tau(  18) = (  -0.1250000   0.6495191   0.8985623  )
        19           B   tau(  19) = (   0.3750000   0.2165064   0.8985623  )
        20           B   tau(  20) = (   0.6250000   0.2165064   0.8985623  )
        21           B   tau(  21) = (   0.5000000   0.4330127   0.8985623  )
        22           N   tau(  22) = (   0.5000005   0.2886748   0.8985623  )
        23           B   tau(  23) = (  -0.2500000   0.4330127   0.8985623  )
        24           B   tau(  24) = (   0.2500000   0.4330127   0.8985623  )
        25           B   tau(  25) = (   0.5000000   0.0000000   0.8985623  )
        26           N   tau(  26) = (  -0.1249995   0.5051812   0.8985623  )
        27           N   tau(  27) = (   0.1250005   0.5051812   0.8985623  )
        28           N   tau(  28) = (   0.0000005   0.7216875   0.8985623  )
        29           N   tau(  29) = (   0.5000005   0.7216875   0.8985623  )
        30           N   tau(  30) = (   0.1250005   0.0721685   0.8985623  )
        31           N   tau(  31) = (   0.8750005   0.0721685   0.8985623  )
        32           B   tau(  32) = (   0.0000000   0.0000000   0.8985623  )
        33           Cr1 tau(  33) = (   0.5500000   0.3464102   1.2040735  )
        34           Cr2 tau(  34) = (  -0.0500000   0.3464102   1.2040735  )

     number of k points=    15  Gaussian smearing, width (Ry)=  0.0000
                       cart. coord. in units 2pi/alat
        k(    1) = (   0.1666667   0.2886751   0.0000000), wk =   0.0740741
        k(    2) = (   0.1666667  -0.4811252   0.0000000), wk =   0.0740741
        k(    3) = (   0.1666667  -0.0962250   0.0000000), wk =   0.0740741
        k(    4) = (  -0.5000000  -0.8660254   0.0000000), wk =   0.0370370
        k(    5) = (  -0.1666667   0.2886751   0.0000000), wk =   0.0740741
        k(    6) = (   0.3333333   0.0000000   0.0000000), wk =   0.0740741
        k(    7) = (  -0.1666667  -0.4811252   0.0000000), wk =   0.0740741
        k(    8) = (   0.5000000  -0.0962250   0.0000000), wk =   0.0740741
        k(    9) = (  -0.3333333  -0.3849002   0.0000000), wk =   0.0740741
        k(   10) = (   0.5000000   0.0962250   0.0000000), wk =   0.0740741
        k(   11) = (  -0.3333333   0.3849002   0.0000000), wk =   0.0740741
        k(   12) = (  -0.1666667  -0.0962250   0.0000000), wk =   0.0740741
        k(   13) = (  -0.0000000  -0.1924501   0.0000000), wk =   0.0740741
        k(   14) = (   0.5000000  -0.8660254   0.0000000), wk =   0.0370370
        k(   15) = (  -1.0000000   0.0000000   0.0000000), wk =   0.0370370

     Initial potential from superposition of free atoms

     starting charge  155.99382, renormalised to  156.00000

     negative rho (up, down):  6.546E-03 4.655E-04
     Starting wfcs are  148 randomized atomic wfcs
     Checking if some PAW data can be deallocated...

     Self-consistent Calculation

     iteration #  1     ecut=    48.00 Ry     beta= 0.50
     Davidson diagonalization with overlap
     ethr =  1.00E-02,  avg # of iterations =  2.9

     negative rho (up, down):  4.711E-03 2.916E-03

     total energy              =   -1130.76674934 Ry
     estimated scf accuracy    <      11.36993244 Ry

     total magnetization       =    12.00 Bohr mag/cell
     absolute magnetization    =    12.16 Bohr mag/cell

[...]

     iteration #  6     ecut=    48.00 Ry     beta= 0.50
     Davidson diagonalization with overlap
     c_bands:  1 eigenvalues not converged
     c_bands:  4 eigenvalues not converged
     c_bands:  2 eigenvalues not converged
     c_bands:  1 eigenvalues not converged
     c_bands:  1 eigenvalues not converged
     ethr =  1.47E-05,  avg # of iterations = 13.5

[...]

     iteration #  9     ecut=    48.00 Ry     beta= 0.50
     Davidson diagonalization with overlap
     c_bands:  1 eigenvalues not converged
     ethr =  4.87E-08,  avg # of iterations =  3.2

[...]

     total energy              =   -1133.81561535 Ry
     estimated scf accuracy    <       0.00000038 Ry

[...]

     iteration # 12     ecut=    48.00 Ry     beta= 0.50
     Davidson diagonalization with overlap
     ethr =  2.43E-10,  avg # of iterations =  3.4

     negative rho (up, down):  2.820E-03 7.256E-03

     Magnetic moment per site:
     atom:    1    charge:    0.8805    magn:    0.0007    constr:    0.0000
     atom:    2    charge:    0.8803    magn:    0.0002    constr:    0.0000
     atom:    3    charge:    0.8803    magn:    0.0001    constr:    0.0000
     atom:    4    charge:    0.8803    magn:    0.0001    constr:    0.0000
     atom:    5    charge:    0.8803    magn:    0.0009    constr:    0.0000
     atom:    6    charge:    0.8804    magn:    0.0005    constr:    0.0000
     atom:    7    charge:    2.8606    magn:    0.0085    constr:    0.0000
     atom:    8    charge:    2.8608    magn:    0.0031    constr:    0.0000
     atom:    9    charge:    2.8608    magn:    0.0008    constr:    0.0000
     atom:   10    charge:    2.8608    magn:    0.0016    constr:    0.0000
     atom:   11    charge:    2.8607    magn:    0.0018    constr:    0.0000
     atom:   12    charge:    2.8607    magn:    0.0060    constr:    0.0000
     atom:   13    charge:    2.8597    magn:    0.0108    constr:    0.0000
     atom:   14    charge:    2.8599    magn:    0.0001    constr:    0.0000
     atom:   15    charge:    2.8599    magn:    0.0003    constr:    0.0000
     atom:   16    charge:    0.8804    magn:    0.0003    constr:    0.0000
     atom:   17    charge:    0.8800    magn:    0.0002    constr:    0.0000
     atom:   18    charge:    0.8800    magn:    0.0005    constr:    0.0000
     atom:   19    charge:    0.8798    magn:    0.0009    constr:    0.0000
     atom:   20    charge:    0.8800    magn:    0.0007    constr:    0.0000
     atom:   21    charge:    0.8802    magn:    0.0003    constr:    0.0000
     atom:   22    charge:    2.8610    magn:    0.0108    constr:    0.0000
     atom:   23    charge:    0.8799    magn:    0.0001    constr:    0.0000
     atom:   24    charge:    0.8798    magn:    0.0003    constr:    0.0000
     atom:   25    charge:    0.8799    magn:    0.0002    constr:    0.0000
     atom:   26    charge:    2.8596    magn:    0.0060    constr:    0.0000
     atom:   27    charge:    2.8597    magn:    0.0031    constr:    0.0000
     atom:   28    charge:    2.8598    magn:    0.0004    constr:    0.0000
     atom:   29    charge:    2.8596    magn:    0.0004    constr:    0.0000
     atom:   30    charge:    2.8595    magn:    0.0008    constr:    0.0000
     atom:   31    charge:    2.8595    magn:    0.0016    constr:    0.0000
     atom:   32    charge:    0.8802    magn:    0.0002    constr:    0.0000
     atom:   33    charge:   12.8322    magn:    4.8206    constr:    0.0000
     atom:   34    charge:   12.8322    magn:    4.8206    constr:    0.0000

     End of self-consistent calculation

 ------ SPIN UP ------------

          k = 0.1667 0.2887 0.0000 ( 59267 PWs)   bands (ev):

   -72.5062 -72.5059 -43.9713 -43.9705 -43.9657 -43.9651 -43.9580 -43.9577
   -21.2731 -20.6929 -20.6753 -20.1370 -20.1155 -19.6198 -19.6019 -19.1254
   -18.7287 -18.7129 -18.4894 -18.4698 -18.2212 -18.1130 -18.1000 -17.8748
   -12.5096 -12.2363 -12.2224 -11.8481 -11.8407 -11.6834 -11.2219 -11.2093
   -10.4177 -10.3925 -10.1460 -10.1369  -9.6164  -9.6111  -8.8664  -8.8529
    -8.8443  -8.7969  -8.7813  -8.6212  -8.2222  -8.0814  -8.0409  -7.8564
    -7.8503  -7.4652  -7.4608  -7.3268  -7.2661  -7.2361  -7.2288  -6.9910
    -6.9748  -6.5977  -6.5588  -6.1797  -6.1772  -5.8979  -5.4438  -5.3219
    -5.3020  -5.2253  -4.9537  -4.9111  -4.5328  -4.3833  -4.3633  -4.0040
    -2.5157  -1.5645  -1.5024  -1.4829  -1.4645  -1.4215  -1.3950  -1.3674
    -1.3574  -1.3356  -1.2995  -1.1945   0.6038   0.7262   1.0459   1.1306
     1.2104   1.4106   1.4536   1.5574   1.5711   1.7138

[...]

          k =-0.5000-0.8660 0.0000 ( 59292 PWs)   bands (ev):

[...]

 ------ SPIN DOWN ----------

[...]

          k = 0.5000-0.8660 0.0000 ( 59292 PWs)   bands (ev):

[...]

          k =-1.0000 0.0000 0.0000 ( 59292 PWs)   bands (ev):

   -68.1377 -68.1374 -39.6406 -39.6396 -39.6291 -39.6283 -39.6257 -39.6254
   -21.0917 -21.0399 -20.4984 -20.4766 -19.4601 -19.4280 -19.4264 -19.4242
   -19.0302 -18.9902 -18.3881 -18.3433 -18.3151 -18.3022 -17.8190 -17.8008
   -12.1262 -12.0927 -12.0665 -12.0538 -11.9050 -11.8886 -11.3686 -11.3296
   -10.2684 -10.2528 -10.1547 -10.1521 -10.1438 -10.1406  -8.6178  -8.5958
    -8.5746  -8.5487  -8.5392  -8.5095  -7.8992  -7.8927  -7.8792  -7.8724
    -7.8340  -7.8328  -7.8041  -7.7511  -7.5328  -7.4868  -6.6355  -6.6224
    -6.3734  -6.3131  -6.3042  -6.2946  -6.2274  -6.1923  -5.7362  -5.6889
    -5.5848  -5.5433  -4.8006  -4.7108  -4.6841  -4.6600  -3.9027  -3.8666
    -0.3647   0.8262   1.0161   1.0824   1.2453   1.3800   1.3935   1.6021
     1.6028   1.6935   1.8769   2.1213   2.1628   2.2431   2.2816   2.3111
     2.4042   2.4805   2.4985   2.5581   2.6243   2.6261

     the Fermi energy is    -0.8561 ev

!    total energy              =   -1133.81562769 Ry

     total all-electron energy =     -6753.491331 Ry
     estimated scf accuracy    <       0.00000007 Ry
     smearing contrib. (-TS)   =      -0.00000000 Ry
     internal energy E=F+TS    =   -1133.81562769 Ry

     The total energy is F=E-TS. E is the sum of the following terms:
     one-electron contribution =   -3920.94819461 Ry
     hartree contribution      =    1989.02273761 Ry
     xc contribution           =    -186.19842667 Ry
     ewald contribution        =    1343.67772127 Ry
     DFT-D3 Dispersion         =      -0.14074315 Ry
     one-center paw contrib.   =    -359.22872214 Ry

     total magnetization       =    12.00 Bohr mag/cell
     absolute magnetization    =    12.00 Bohr mag/cell

     convergence has been achieved in  12 iterations

     Writing output data file ./mytmp/Crdimer0.3-0.4.save/

     General routines

     Parallel routines

   This run was terminated on:   1: 6:21  30Mar2021

   JOB DONE.