     Program PWSCF v.6.7MaX starts on 29Mar2021 at 21:37: 2

     R & G space division:  proc/nbgrp/npool/nimage =      48
     Reading input from Crdimer0.22-0.5.scf.in

     Current dimensions of program PWSCF are:
     Max number of different atomic species (ntypx) = 10
     Max number of k-points (npk) =  40000
     Max angular momentum in pseudopotentials (lmaxx) =  3
     file N.pbe-n-kjpaw_psl.1.0.0.UPF: wavefunction(s)  2S renormalized
     file Cr.pbe-spn-kjpaw_psl.1.0.0.UPF: wavefunction(s)  3S 3P 3D renormalized
     file Cr.pbe-spn-kjpaw_psl.1.0.0.UPF: wavefunction(s)  3S 3P 3D renormalized

     Parameters for DFT-D3 Dispersion Correction:
       Reference C6 values for interpolation:

         atom   Coordination number   C6
         B          0.000           214.36
         B          0.971           150.74
         B          1.944           106.23
         B          2.913            62.89
         B          4.586            56.06
         N          0.000            50.54
         N          0.994            44.25
         N          2.014            39.35
         N          2.990            31.16
         Cr1        0.000          1381.48
         Cr1        1.827           571.38
         Cr1       10.619           306.69
         Cr2        0.000          1381.48
         Cr2        1.827           571.38
         Cr2       10.619           306.69

       Values used:

         atom   Coordination number  R0_AB[au]  C6      C8
         B          3.337            3.039     62.89   2505.96
         B          3.339            3.039     62.89   2505.93
         B          3.335            3.039     62.89   2506.01
         B          3.335            3.039     62.89   2506.01
         B          3.339            3.039     62.89   2505.93
         B          3.337            3.039     62.89   2505.96
         N          3.135            2.478     31.22    688.69
         N          3.148            2.478     31.21    688.57
         N          3.134            2.478     31.22    688.70
         N          3.134            2.478     31.22    688.70
         N          3.137            2.478     31.22    688.67
         N          3.141            2.478     31.22    688.64
         N          3.143            2.478     31.21    688.61
         N          3.135            2.478     31.22    688.69
         N          3.134            2.478     31.22    688.70
         B          3.381            3.039     62.86   2504.69
         B          3.339            3.039     62.89   2505.93
         B          3.337            3.039     62.89   2505.96
         B          3.339            3.039     62.89   2505.93
         B          3.337            3.039     62.89   2505.96
         B          3.381            3.039     62.86   2504.69
         N          3.143            2.478     31.21    688.61
         B          3.338            3.039     62.89   2505.93
         B          3.344            3.039     62.89   2505.80
         B          3.335            3.039     62.89   2506.00
         N          3.141            2.478     31.22    688.64
         N          3.148            2.478     31.21    688.57
         N          3.135            2.478     31.22    688.69
         N          3.135            2.478     31.22    688.69
         N          3.134            2.478     31.22    688.70
         N          3.134            2.478     31.22    688.70
         B          3.335            3.039     62.89   2506.00
         Cr1        0.109            3.252   1381.48 127494.69
         Cr2        0.109            3.252   1381.48 127494.69

         Molecular C6 ( Ry / a.u.^6 ) =     79164.15

     bravais-lattice index     =            4
     lattice parameter (alat)  =      18.9275  a.u.
     unit-cell volume          =   10553.3021 (a.u.)^3
     number of atoms/cell      =           34
     number of atomic types    =            4
     number of electrons       =       156.00
     number of Kohn-Sham states=           94
     kinetic-energy cutoff     =      48.0000  Ry
     charge density cutoff     =     457.0000  Ry
     scf convergence threshold =      1.0E-07
     mixing beta               =       0.5000
     number of iterations used =            8  plain     mixing
     Exchange-correlation= SLA  PW   PBX  PBC
                           (   1   4   3   4   0   0   0)

     celldm(1)=  18.927497  celldm(2)=   0.000000  celldm(3)=   1.797125
     celldm(4)=   0.000000  celldm(5)=   0.000000  celldm(6)=   0.000000

     crystal axes: (cart. coord. in units of alat)
               a(1) = (   1.000000   0.000000   0.000000 )
               a(2) = (  -0.500000   0.866025   0.000000 )
               a(3) = (   0.000000   0.000000   1.797125 )

     reciprocal axes: (cart. coord. in units 2 pi/alat)
               b(1) = (  1.000000  0.577350  0.000000 )
               b(2) = (  0.000000  1.154701  0.000000 )
               b(3) = (  0.000000  0.000000  0.556444 )

     PseudoPot. # 1 for B  read from file:
     /home/sf05/q-e-qe-6.7MaX-Release/pseudo/B.pbe-n-kjpaw_psl.1.0.0.UPF
     MD5 check sum: d9c678ba5d3b2fd7b74e61139c9288d8
     Pseudo is Projector augmented-wave + core cor, Zval =  3.0
     Generated using "atomic" code by A. Dal Corso  v.5.1.2
     Shape of augmentation charge: PSQ
     Using radial grid of 1059 points,  4 beta functions with:
                l(1) =   0
                l(2) =   0
                l(3) =   1
                l(4) =   1
     Q(r) pseudized with 0 coefficients

     PseudoPot. # 2 for N  read from file:
     /home/sf05/q-e-qe-6.7MaX-Release/pseudo/N.pbe-n-kjpaw_psl.1.0.0.UPF
     MD5 check sum: e0e4e94a9c4025c5b51bd7d8793849bd
     Pseudo is Projector augmented-wave + core cor, Zval =  5.0
     Generated using "atomic" code by A. Dal Corso  v.5.1.2
     Shape of augmentation charge: PSQ
     Using radial grid of 1085 points,  4 beta functions with:
                l(1) =   0
                l(2) =   0
                l(3) =   1
                l(4) =   1
     Q(r) pseudized with 0 coefficients

     PseudoPot. # 3 for Cr read from file:
     /home/sf05/q-e-qe-6.7MaX-Release/pseudo/Cr.pbe-spn-kjpaw_psl.1.0.0.UPF
     MD5 check sum: 198f1a2427a48552563eee314eba32ba
     Pseudo is Projector augmented-wave + core cor, Zval = 14.0
     Generated using &quot;atomic&quot; code by A. Dal Corso  v.6.3
     Shape of augmentation charge: PSQ
     Using radial grid of 1183 points,  6 beta functions with:
                l(1) =   0
                l(2) =   0
                l(3) =   1
                l(4) =   1
                l(5) =   2
                l(6) =   2
     Q(r) pseudized with 0 coefficients

     PseudoPot. # 4 for Cr read from file:
     /home/sf05/q-e-qe-6.7MaX-Release/pseudo/Cr.pbe-spn-kjpaw_psl.1.0.0.UPF
     MD5 check sum: 198f1a2427a48552563eee314eba32ba
     Pseudo is Projector augmented-wave + core cor, Zval = 14.0
     Generated using &quot;atomic&quot; code by A. Dal Corso  v.6.3
     Shape of augmentation charge: PSQ
     Using radial grid of 1183 points,  6 beta functions with:
                l(1) =   0
                l(2) =   0
                l(3) =   1
                l(4) =   1
                l(5) =   2
                l(6) =   2
     Q(r) pseudized with 0 coefficients

     atomic species   valence    mass     pseudopotential
        B              3.00    10.81100     B ( 1.00)
        N              5.00    14.00674     N ( 1.00)
        Cr1           14.00    51.99610     Cr( 1.00)
        Cr2           14.00    51.99610     Cr( 1.00)

     Starting magnetic structure
     atomic species   magnetization
        B            0.000
        N            0.000
        Cr1          1.000
        Cr2          1.000

     No symmetry found

   Cartesian axes

     site n.     atom                  positions (alat units)
         1           B   tau(   1) = (  -0.1250000   0.2165064   0.8985623  )
         2           B   tau(   2) = (   0.3750000   0.6495191   0.8985623  )
         3           B   tau(   3) = (   0.2500000   0.0000000   0.8985623  )
         4           B   tau(   4) = (   0.7500000   0.0000000   0.8985623  )
         5           B   tau(   5) = (   0.1250000   0.2165064   0.8985623  )
         6           B   tau(   6) = (  -0.3750000   0.6495191   0.8985623  )
         7           N   tau(   7) = (   0.7500005   0.2886748   0.8985623  )
         8           N   tau(   8) = (   0.3750005   0.5051812   0.8985623  )
         9           N   tau(   9) = (   0.3750005   0.0721685   0.8985623  )
        10           N   tau(  10) = (   0.6250005   0.0721685   0.8985623  )
        11           N   tau(  11) = (   0.2500005   0.2886748   0.8985623  )
        12           N   tau(  12) = (   0.6250005   0.5051812   0.8985623  )
        13           N   tau(  13) = (   0.0000005   0.2886748   0.8985623  )
        14           N   tau(  14) = (   0.2500005   0.7216875   0.8985623  )
        15           N   tau(  15) = (  -0.2499995   0.7216875   0.8985623  )
        16           B   tau(  16) = (   0.0000000   0.4330127   0.8985623  )
        17           B   tau(  17) = (   0.1250000   0.6495191   0.8985623  )
        18           B   tau(  18) = (  -0.1250000   0.6495191   0.8985623  )
        19           B   tau(  19) = (   0.3750000   0.2165064   0.8985623  )
        20           B   tau(  20) = (   0.6250000   0.2165064   0.8985623  )
        21           B   tau(  21) = (   0.5000000   0.4330127   0.8985623  )
        22           N   tau(  22) = (   0.5000005   0.2886748   0.8985623  )
        23           B   tau(  23) = (  -0.2500000   0.4330127   0.8985623  )
        24           B   tau(  24) = (   0.2500000   0.4330127   0.8985623  )
        25           B   tau(  25) = (   0.5000000   0.0000000   0.8985623  )
        26           N   tau(  26) = (  -0.1249995   0.5051812   0.8985623  )
        27           N   tau(  27) = (   0.1250005   0.5051812   0.8985623  )
        28           N   tau(  28) = (   0.0000005   0.7216875   0.8985623  )
        29           N   tau(  29) = (   0.5000005   0.7216875   0.8985623  )
        30           N   tau(  30) = (   0.1250005   0.0721685   0.8985623  )
        31           N   tau(  31) = (   0.8750005   0.0721685   0.8985623  )
        32           B   tau(  32) = (   0.0000000   0.0000000   0.8985623  )
        33           Cr1 tau(  33) = (   0.4700000   0.4330127   1.2040735  )
        34           Cr2 tau(  34) = (   0.0300000   0.4330127   1.2040735  )

     number of k points=    15  Gaussian smearing, width (Ry)=  0.0000
                       cart. coord. in units 2pi/alat
        k(    1) = (   0.1666667   0.2886751   0.0000000), wk =   0.0740741
        k(    2) = (   0.1666667  -0.4811252   0.0000000), wk =   0.0740741
        k(    3) = (   0.1666667  -0.0962250   0.0000000), wk =   0.0740741
        k(    4) = (  -0.5000000  -0.8660254   0.0000000), wk =   0.0370370
        k(    5) = (  -0.1666667   0.2886751   0.0000000), wk =   0.0740741
        k(    6) = (   0.3333333   0.0000000   0.0000000), wk =   0.0740741
        k(    7) = (  -0.1666667  -0.4811252   0.0000000), wk =   0.0740741
        k(    8) = (   0.5000000  -0.0962250   0.0000000), wk =   0.0740741
        k(    9) = (  -0.3333333  -0.3849002   0.0000000), wk =   0.0740741
        k(   10) = (   0.5000000   0.0962250   0.0000000), wk =   0.0740741
        k(   11) = (  -0.3333333   0.3849002   0.0000000), wk =   0.0740741
        k(   12) = (  -0.1666667  -0.0962250   0.0000000), wk =   0.0740741
        k(   13) = (  -0.0000000  -0.1924501   0.0000000), wk =   0.0740741
        k(   14) = (   0.5000000  -0.8660254   0.0000000), wk =   0.0370370
        k(   15) = (  -1.0000000   0.0000000   0.0000000), wk =   0.0370370

     Initial potential from superposition of free atoms

     starting charge  155.99382, renormalised to  156.00000

     negative rho (up, down):  6.530E-03 4.655E-04
     Starting wfcs are  148 randomized atomic wfcs
     Checking if some PAW data can be deallocated...

     Self-consistent Calculation

     iteration #  1     ecut=    48.00 Ry     beta= 0.50
     Davidson diagonalization with overlap
     ethr =  1.00E-02,  avg # of iterations =  2.8

     negative rho (up, down):  4.714E-03 2.946E-03

     total energy              =   -1130.76420316 Ry
     estimated scf accuracy    <      11.37894760 Ry

     total magnetization       =    12.00 Bohr mag/cell
     absolute magnetization    =    12.14 Bohr mag/cell

[...]

     iteration #  6     ecut=    48.00 Ry     beta= 0.50
     Davidson diagonalization with overlap
     c_bands:  1 eigenvalues not converged
     c_bands:  2 eigenvalues not converged
     c_bands:  1 eigenvalues not converged
     ethr =  1.06E-05,  avg # of iterations = 12.6

[...]

     total energy              =   -1133.81261647 Ry
     estimated scf accuracy    <       0.00000089 Ry

[...]

     iteration # 12     ecut=    48.00 Ry     beta= 0.50
     Davidson diagonalization with overlap
     ethr =  5.73E-10,  avg # of iterations =  2.2

     negative rho (up, down):  2.839E-03 7.302E-03

     Magnetic moment per site:
     atom:    1    charge:    0.8804    magn:    0.0006    constr:    0.0000
     atom:    2    charge:    0.8804    magn:    0.0007    constr:    0.0000
     atom:    3    charge:    0.8803    magn:    0.0000    constr:    0.0000
     atom:    4    charge:    0.8803    magn:    0.0001    constr:    0.0000
     atom:    5    charge:    0.8804    magn:    0.0005    constr:    0.0000
     atom:    6    charge:    0.8804    magn:    0.0004    constr:    0.0000
     atom:    7    charge:    2.8608    magn:    0.0016    constr:    0.0000
     atom:    8    charge:    2.8606    magn:    0.0096    constr:    0.0000
     atom:    9    charge:    2.8609    magn:    0.0004    constr:    0.0000
     atom:   10    charge:    2.8609    magn:    0.0003    constr:    0.0000
     atom:   11    charge:    2.8607    magn:    0.0037    constr:    0.0000
     atom:   12    charge:    2.8606    magn:    0.0065    constr:    0.0000
     atom:   13    charge:    2.8596    magn:    0.0076    constr:    0.0000
     atom:   14    charge:    2.8599    magn:    0.0006    constr:    0.0000
     atom:   15    charge:    2.8599    magn:    0.0003    constr:    0.0000
     atom:   16    charge:    0.8810    magn:    0.0004    constr:    0.0000
     atom:   17    charge:    0.8801    magn:    0.0007    constr:    0.0000
     atom:   18    charge:    0.8800    magn:    0.0004    constr:    0.0000
     atom:   19    charge:    0.8798    magn:    0.0005    constr:    0.0000
     atom:   20    charge:    0.8798    magn:    0.0006    constr:    0.0000
     atom:   21    charge:    0.8807    magn:    0.0004    constr:    0.0000
     atom:   22    charge:    2.8608    magn:    0.0076    constr:    0.0000
     atom:   23    charge:    0.8799    magn:    0.0007    constr:    0.0000
     atom:   24    charge:    0.8800    magn:    0.0009    constr:    0.0000
     atom:   25    charge:    0.8800    magn:    0.0002    constr:    0.0000
     atom:   26    charge:    2.8595    magn:    0.0065    constr:    0.0000
     atom:   27    charge:    2.8595    magn:    0.0096    constr:    0.0000
     atom:   28    charge:    2.8597    magn:    0.0011    constr:    0.0000
     atom:   29    charge:    2.8595    magn:    0.0011    constr:    0.0000
     atom:   30    charge:    2.8596    magn:    0.0004    constr:    0.0000
     atom:   31    charge:    2.8596    magn:    0.0003    constr:    0.0000
     atom:   32    charge:    0.8802    magn:    0.0002    constr:    0.0000
     atom:   33    charge:   12.7666    magn:    4.7615    constr:    0.0000
     atom:   34    charge:   12.7667    magn:    4.7617    constr:    0.0000

     End of self-consistent calculation

 ------ SPIN UP ------------

          k = 0.1667 0.2887 0.0000 ( 59267 PWs)   bands (ev):

   -72.4786 -72.4777 -43.9424 -43.9415 -43.9369 -43.9361 -43.9360 -43.9352
   -21.2610 -20.6793 -20.6652 -20.1197 -20.1094 -19.6064 -19.5924 -19.1138
   -18.7153 -18.7017 -18.4729 -18.4637 -18.2092 -18.1015 -18.0907 -17.8640
   -12.4979 -12.2223 -12.2133 -11.8359 -11.8301 -11.6718 -11.2091 -11.1994
   -10.4059 -10.3816 -10.1341 -10.1263  -9.6044  -9.6003  -8.8516  -8.8414
    -8.8357  -8.7838  -8.7714  -8.6104  -8.2108  -8.0647  -8.0351  -7.8429
    -7.8403  -7.4537  -7.4500  -7.3109  -7.2600  -7.2237  -7.2180  -6.9757
    -6.9676  -6.5816  -6.5538  -6.1681  -6.1659  -5.8873  -5.4325  -5.3106
    -5.2880  -5.2140  -4.9347  -4.9091  -4.5224  -4.3732  -4.3547  -3.9941
    -2.3482  -1.6003  -1.4473  -1.4320  -1.4223  -1.3831  -1.3709  -1.3686
    -1.3544  -1.3403  -1.3172  -1.2434   0.6194   0.7816   0.9745   1.2012
     1.2328   1.4377   1.4874   1.5543   1.5844   1.6231

[...]

          k =-0.5000-0.8660 0.0000 ( 59292 PWs)   bands (ev):

[...]

 ------ SPIN DOWN ----------

[...]

          k = 0.5000-0.8660 0.0000 ( 59292 PWs)   bands (ev):

[...]

          k =-1.0000 0.0000 0.0000 ( 59292 PWs)   bands (ev):

   -68.1079 -68.1069 -39.6152 -39.6143 -39.5990 -39.5979 -39.5942 -39.5933
   -21.0757 -21.0319 -20.4820 -20.4686 -19.4299 -19.4277 -19.4244 -19.4098
   -19.0143 -18.9820 -18.3636 -18.3394 -18.3044 -18.2951 -17.8034 -17.7934
   -12.1048 -12.0873 -12.0518 -12.0485 -11.8903 -11.8796 -11.3547 -11.3206
   -10.2474 -10.2469 -10.1415 -10.1405 -10.1334 -10.1329  -8.6018  -8.5769
    -8.5650  -8.5389  -8.5307  -8.5018  -7.8813  -7.8755  -7.8688  -7.8676
    -7.8253  -7.8239  -7.7871  -7.7432  -7.5176  -7.4785  -6.6207  -6.6137
    -6.3463  -6.3114  -6.3043  -6.2784  -6.2127  -6.1839  -5.7214  -5.6803
    -5.5703  -5.5347  -4.7543  -4.7372  -4.6615  -4.6572  -3.8837  -3.8625
    -0.2686   0.7696   1.0428   1.1112   1.2467   1.2947   1.5053   1.5908
     1.6228   1.7012   1.8863   2.1433   2.1816   2.2773   2.3128   2.3737
     2.3975   2.4983   2.5484   2.5660   2.6365   2.6391

     the Fermi energy is    -0.8506 ev

!    total energy              =   -1133.81262083 Ry

     total all-electron energy =     -6753.488324 Ry
     estimated scf accuracy    <       0.00000005 Ry
     smearing contrib. (-TS)   =      -0.00000000 Ry
     internal energy E=F+TS    =   -1133.81262083 Ry

     The total energy is F=E-TS. E is the sum of the following terms:
     one-electron contribution =   -3916.50156644 Ry
     hartree contribution      =    1986.88235332 Ry
     xc contribution           =    -186.20341260 Ry
     ewald contribution        =    1341.37705379 Ry
     DFT-D3 Dispersion         =      -0.13898986 Ry
     one-center paw contrib.   =    -359.22805904 Ry

     total magnetization       =    12.00 Bohr mag/cell
     absolute magnetization    =    12.00 Bohr mag/cell

     convergence has been achieved in  12 iterations

     Writing output data file ./mytmp/Crdimer0.22-0.5.save/

     General routines

     Parallel routines

   This run was terminated on:  21:45:15  29Mar2021

   JOB DONE.