     Program PWSCF v.6.7MaX starts on 29Mar2021 at 22:34:50

     R & G space division:  proc/nbgrp/npool/nimage =      48
     Reading input from Crdimer0.26-0.0.scf.in

     Current dimensions of program PWSCF are:
     Max number of different atomic species (ntypx) = 10
     Max number of k-points (npk) =  40000
     Max angular momentum in pseudopotentials (lmaxx) =  3
     file N.pbe-n-kjpaw_psl.1.0.0.UPF: wavefunction(s)  2S renormalized
     file Cr.pbe-spn-kjpaw_psl.1.0.0.UPF: wavefunction(s)  3S 3P 3D renormalized
     file Cr.pbe-spn-kjpaw_psl.1.0.0.UPF: wavefunction(s)  3S 3P 3D renormalized

     Parameters for DFT-D3 Dispersion Correction:
       Reference C6 values for interpolation:

         atom   Coordination number   C6
         B          0.000           214.36
         B          0.971           150.74
         B          1.944           106.23
         B          2.913            62.89
         B          4.586            56.06
         N          0.000            50.54
         N          0.994            44.25
         N          2.014            39.35
         N          2.990            31.16
         Cr1        0.000          1381.48
         Cr1        1.827           571.38
         Cr1       10.619           306.69
         Cr2        0.000          1381.48
         Cr2        1.827           571.38
         Cr2       10.619           306.69

       Values used:

         atom   Coordination number  R0_AB[au]  C6      C8
         B          3.338            3.039     62.89   2505.94
         B          3.338            3.039     62.89   2505.94
         B          3.339            3.039     62.89   2505.90
         B          3.341            3.039     62.89   2505.86
         B          3.338            3.039     62.89   2505.95
         B          3.338            3.039     62.89   2505.95
         N          3.134            2.478     31.22    688.69
         N          3.134            2.478     31.22    688.70
         N          3.143            2.478     31.21    688.62
         N          3.145            2.478     31.21    688.60
         N          3.134            2.478     31.22    688.69
         N          3.134            2.478     31.22    688.70
         N          3.135            2.478     31.22    688.69
         N          3.136            2.478     31.22    688.68
         N          3.136            2.478     31.22    688.68
         B          3.335            3.039     62.89   2506.00
         B          3.338            3.039     62.89   2505.94
         B          3.338            3.039     62.89   2505.95
         B          3.338            3.039     62.89   2505.95
         B          3.338            3.039     62.89   2505.94
         B          3.335            3.039     62.89   2506.00
         N          3.135            2.478     31.22    688.69
         B          3.335            3.039     62.89   2506.01
         B          3.335            3.039     62.89   2506.01
         B          3.384            3.039     62.86   2504.60
         N          3.134            2.478     31.22    688.70
         N          3.134            2.478     31.22    688.70
         N          3.144            2.478     31.21    688.61
         N          3.144            2.478     31.21    688.61
         N          3.143            2.478     31.21    688.62
         N          3.145            2.478     31.21    688.60
         B          3.384            3.039     62.86   2504.60
         Cr1        0.108            3.252   1381.48 127494.70
         Cr2        0.108            3.252   1381.48 127494.70

         Molecular C6 ( Ry / a.u.^6 ) =     79164.05

     bravais-lattice index     =            4
     lattice parameter (alat)  =      18.9275  a.u.
     unit-cell volume          =   10553.3021 (a.u.)^3
     number of atoms/cell      =           34
     number of atomic types    =            4
     number of electrons       =       156.00
     number of Kohn-Sham states=           94
     kinetic-energy cutoff     =      48.0000  Ry
     charge density cutoff     =     457.0000  Ry
     scf convergence threshold =      1.0E-07
     mixing beta               =       0.5000
     number of iterations used =            8  plain     mixing
     Exchange-correlation= SLA  PW   PBX  PBC
                           (   1   4   3   4   0   0   0)

     celldm(1)=  18.927497  celldm(2)=   0.000000  celldm(3)=   1.797125
     celldm(4)=   0.000000  celldm(5)=   0.000000  celldm(6)=   0.000000

     crystal axes: (cart. coord. in units of alat)
               a(1) = (   1.000000   0.000000   0.000000 )
               a(2) = (  -0.500000   0.866025   0.000000 )
               a(3) = (   0.000000   0.000000   1.797125 )

     reciprocal axes: (cart. coord. in units 2 pi/alat)
               b(1) = (  1.000000  0.577350  0.000000 )
               b(2) = (  0.000000  1.154701  0.000000 )
               b(3) = (  0.000000  0.000000  0.556444 )

     PseudoPot. # 1 for B  read from file:
     /home/sf05/q-e-qe-6.7MaX-Release/pseudo/B.pbe-n-kjpaw_psl.1.0.0.UPF
     MD5 check sum: d9c678ba5d3b2fd7b74e61139c9288d8
     Pseudo is Projector augmented-wave + core cor, Zval =  3.0
     Generated using "atomic" code by A. Dal Corso  v.5.1.2
     Shape of augmentation charge: PSQ
     Using radial grid of 1059 points,  4 beta functions with:
                l(1) =   0
                l(2) =   0
                l(3) =   1
                l(4) =   1
     Q(r) pseudized with 0 coefficients

     PseudoPot. # 2 for N  read from file:
     /home/sf05/q-e-qe-6.7MaX-Release/pseudo/N.pbe-n-kjpaw_psl.1.0.0.UPF
     MD5 check sum: e0e4e94a9c4025c5b51bd7d8793849bd
     Pseudo is Projector augmented-wave + core cor, Zval =  5.0
     Generated using "atomic" code by A. Dal Corso  v.5.1.2
     Shape of augmentation charge: PSQ
     Using radial grid of 1085 points,  4 beta functions with:
                l(1) =   0
                l(2) =   0
                l(3) =   1
                l(4) =   1
     Q(r) pseudized with 0 coefficients

     PseudoPot. # 3 for Cr read from file:
     /home/sf05/q-e-qe-6.7MaX-Release/pseudo/Cr.pbe-spn-kjpaw_psl.1.0.0.UPF
     MD5 check sum: 198f1a2427a48552563eee314eba32ba
     Pseudo is Projector augmented-wave + core cor, Zval = 14.0
     Generated using &quot;atomic&quot; code by A. Dal Corso  v.6.3
     Shape of augmentation charge: PSQ
     Using radial grid of 1183 points,  6 beta functions with:
                l(1) =   0
                l(2) =   0
                l(3) =   1
                l(4) =   1
                l(5) =   2
                l(6) =   2
     Q(r) pseudized with 0 coefficients

     PseudoPot. # 4 for Cr read from file:
     /home/sf05/q-e-qe-6.7MaX-Release/pseudo/Cr.pbe-spn-kjpaw_psl.1.0.0.UPF
     MD5 check sum: 198f1a2427a48552563eee314eba32ba
     Pseudo is Projector augmented-wave + core cor, Zval = 14.0
     Generated using &quot;atomic&quot; code by A. Dal Corso  v.6.3
     Shape of augmentation charge: PSQ
     Using radial grid of 1183 points,  6 beta functions with:
                l(1) =   0
                l(2) =   0
                l(3) =   1
                l(4) =   1
                l(5) =   2
                l(6) =   2
     Q(r) pseudized with 0 coefficients

     atomic species   valence    mass     pseudopotential
        B              3.00    10.81100     B ( 1.00)
        N              5.00    14.00674     N ( 1.00)
        Cr1           14.00    51.99610     Cr( 1.00)
        Cr2           14.00    51.99610     Cr( 1.00)

     Starting magnetic structure
     atomic species   magnetization
        B            0.000
        N            0.000
        Cr1          1.000
        Cr2          1.000

     No symmetry found

   Cartesian axes

     site n.     atom                  positions (alat units)
         1           B   tau(   1) = (  -0.1250000   0.2165064   0.8985623  )
         2           B   tau(   2) = (   0.3750000   0.6495191   0.8985623  )
         3           B   tau(   3) = (   0.2500000   0.0000000   0.8985623  )
         4           B   tau(   4) = (   0.7500000   0.0000000   0.8985623  )
         5           B   tau(   5) = (   0.1250000   0.2165064   0.8985623  )
         6           B   tau(   6) = (  -0.3750000   0.6495191   0.8985623  )
         7           N   tau(   7) = (   0.7500005   0.2886748   0.8985623  )
         8           N   tau(   8) = (   0.3750005   0.5051812   0.8985623  )
         9           N   tau(   9) = (   0.3750005   0.0721685   0.8985623  )
        10           N   tau(  10) = (   0.6250005   0.0721685   0.8985623  )
        11           N   tau(  11) = (   0.2500005   0.2886748   0.8985623  )
        12           N   tau(  12) = (   0.6250005   0.5051812   0.8985623  )
        13           N   tau(  13) = (   0.0000005   0.2886748   0.8985623  )
        14           N   tau(  14) = (   0.2500005   0.7216875   0.8985623  )
        15           N   tau(  15) = (  -0.2499995   0.7216875   0.8985623  )
        16           B   tau(  16) = (   0.0000000   0.4330127   0.8985623  )
        17           B   tau(  17) = (   0.1250000   0.6495191   0.8985623  )
        18           B   tau(  18) = (  -0.1250000   0.6495191   0.8985623  )
        19           B   tau(  19) = (   0.3750000   0.2165064   0.8985623  )
        20           B   tau(  20) = (   0.6250000   0.2165064   0.8985623  )
        21           B   tau(  21) = (   0.5000000   0.4330127   0.8985623  )
        22           N   tau(  22) = (   0.5000005   0.2886748   0.8985623  )
        23           B   tau(  23) = (  -0.2500000   0.4330127   0.8985623  )
        24           B   tau(  24) = (   0.2500000   0.4330127   0.8985623  )
        25           B   tau(  25) = (   0.5000000   0.0000000   0.8985623  )
        26           N   tau(  26) = (  -0.1249995   0.5051812   0.8985623  )
        27           N   tau(  27) = (   0.1250005   0.5051812   0.8985623  )
        28           N   tau(  28) = (   0.0000005   0.7216875   0.8985623  )
        29           N   tau(  29) = (   0.5000005   0.7216875   0.8985623  )
        30           N   tau(  30) = (   0.1250005   0.0721685   0.8985623  )
        31           N   tau(  31) = (   0.8750005   0.0721685   0.8985623  )
        32           B   tau(  32) = (   0.0000000   0.0000000   0.8985623  )
        33           Cr1 tau(  33) = (   0.5100000   0.0000000   1.2040735  )
        34           Cr2 tau(  34) = (  -0.0100000   0.0000000   1.2040735  )

     number of k points=    15  Gaussian smearing, width (Ry)=  0.0000
                       cart. coord. in units 2pi/alat
        k(    1) = (   0.1666667   0.2886751   0.0000000), wk =   0.0740741
        k(    2) = (   0.1666667  -0.4811252   0.0000000), wk =   0.0740741
        k(    3) = (   0.1666667  -0.0962250   0.0000000), wk =   0.0740741
        k(    4) = (  -0.5000000  -0.8660254   0.0000000), wk =   0.0370370
        k(    5) = (  -0.1666667   0.2886751   0.0000000), wk =   0.0740741
        k(    6) = (   0.3333333   0.0000000   0.0000000), wk =   0.0740741
        k(    7) = (  -0.1666667  -0.4811252   0.0000000), wk =   0.0740741
        k(    8) = (   0.5000000  -0.0962250   0.0000000), wk =   0.0740741
        k(    9) = (  -0.3333333  -0.3849002   0.0000000), wk =   0.0740741
        k(   10) = (   0.5000000   0.0962250   0.0000000), wk =   0.0740741
        k(   11) = (  -0.3333333   0.3849002   0.0000000), wk =   0.0740741
        k(   12) = (  -0.1666667  -0.0962250   0.0000000), wk =   0.0740741
        k(   13) = (  -0.0000000  -0.1924501   0.0000000), wk =   0.0740741
        k(   14) = (   0.5000000  -0.8660254   0.0000000), wk =   0.0370370
        k(   15) = (  -1.0000000   0.0000000   0.0000000), wk =   0.0370370

     Initial potential from superposition of free atoms

     starting charge  155.99382, renormalised to  156.00000

     negative rho (up, down):  6.501E-03 4.655E-04
     Starting wfcs are  148 randomized atomic wfcs
     Checking if some PAW data can be deallocated...

     Self-consistent Calculation

     iteration #  1     ecut=    48.00 Ry     beta= 0.50
     Davidson diagonalization with overlap
     ethr =  1.00E-02,  avg # of iterations =  2.8

     negative rho (up, down):  4.690E-03 2.937E-03

     total energy              =   -1130.76488911 Ry
     estimated scf accuracy    <      11.37847683 Ry

     total magnetization       =    12.00 Bohr mag/cell
     absolute magnetization    =    12.15 Bohr mag/cell

[...]

     iteration #  5     ecut=    48.00 Ry     beta= 0.50
     Davidson diagonalization with overlap
     c_bands:  1 eigenvalues not converged
     ethr =  1.79E-04,  avg # of iterations =  9.7

[...]

     iteration #  6     ecut=    48.00 Ry     beta= 0.50
     Davidson diagonalization with overlap
     c_bands:  1 eigenvalues not converged
     c_bands:  1 eigenvalues not converged
     ethr =  1.05E-05,  avg # of iterations = 12.3

[...]

     total energy              =   -1133.81108641 Ry
     estimated scf accuracy    <       0.00000060 Ry

[...]

     iteration # 12     ecut=    48.00 Ry     beta= 0.50
     Davidson diagonalization with overlap
     ethr =  3.86E-10,  avg # of iterations =  2.2

     negative rho (up, down):  2.822E-03 7.300E-03

     Magnetic moment per site:
     atom:    1    charge:    0.8804    magn:    0.0006    constr:    0.0000
     atom:    2    charge:    0.8804    magn:    0.0005    constr:    0.0000
     atom:    3    charge:    0.8803    magn:    0.0008    constr:    0.0000
     atom:    4    charge:    0.8804    magn:    0.0009    constr:    0.0000
     atom:    5    charge:    0.8804    magn:    0.0005    constr:    0.0000
     atom:    6    charge:    0.8804    magn:    0.0006    constr:    0.0000
     atom:    7    charge:    2.8609    magn:    0.0005    constr:    0.0000
     atom:    8    charge:    2.8609    magn:    0.0004    constr:    0.0000
     atom:    9    charge:    2.8606    magn:    0.0076    constr:    0.0000
     atom:   10    charge:    2.8606    magn:    0.0086    constr:    0.0000
     atom:   11    charge:    2.8609    magn:    0.0004    constr:    0.0000
     atom:   12    charge:    2.8609    magn:    0.0003    constr:    0.0000
     atom:   13    charge:    2.8598    magn:    0.0011    constr:    0.0000
     atom:   14    charge:    2.8597    magn:    0.0028    constr:    0.0000
     atom:   15    charge:    2.8597    magn:    0.0021    constr:    0.0000
     atom:   16    charge:    0.8800    magn:    0.0002    constr:    0.0000
     atom:   17    charge:    0.8801    magn:    0.0005    constr:    0.0000
     atom:   18    charge:    0.8800    magn:    0.0006    constr:    0.0000
     atom:   19    charge:    0.8798    magn:    0.0005    constr:    0.0000
     atom:   20    charge:    0.8798    magn:    0.0006    constr:    0.0000
     atom:   21    charge:    0.8798    magn:    0.0002    constr:    0.0000
     atom:   22    charge:    2.8611    magn:    0.0011    constr:    0.0000
     atom:   23    charge:    0.8799    magn:    0.0001    constr:    0.0000
     atom:   24    charge:    0.8799    magn:    0.0000    constr:    0.0000
     atom:   25    charge:    0.8809    magn:    0.0004    constr:    0.0000
     atom:   26    charge:    2.8598    magn:    0.0003    constr:    0.0000
     atom:   27    charge:    2.8598    magn:    0.0004    constr:    0.0000
     atom:   28    charge:    2.8594    magn:    0.0078    constr:    0.0000
     atom:   29    charge:    2.8593    magn:    0.0078    constr:    0.0000
     atom:   30    charge:    2.8593    magn:    0.0076    constr:    0.0000
     atom:   31    charge:    2.8593    magn:    0.0086    constr:    0.0000
     atom:   32    charge:    0.8812    magn:    0.0004    constr:    0.0000
     atom:   33    charge:   12.7566    magn:    4.7528    constr:    0.0000
     atom:   34    charge:   12.7568    magn:    4.7529    constr:    0.0000

     End of self-consistent calculation

 ------ SPIN UP ------------

          k = 0.1667 0.2887 0.0000 ( 59267 PWs)   bands (ev):

   -72.4644 -72.4633 -43.9274 -43.9264 -43.9237 -43.9227 -43.9226 -43.9216
   -21.2596 -20.6737 -20.6685 -20.1188 -20.1079 -19.6006 -19.5959 -19.1125
   -18.7100 -18.7043 -18.4721 -18.4624 -18.2076 -18.0986 -18.0920 -17.8630
   -12.4968 -12.2213 -12.2118 -11.8333 -11.8305 -11.6707 -11.2049 -11.2015
   -10.4048 -10.3805 -10.1304 -10.1278  -9.6019  -9.6005  -8.8497  -8.8406
    -8.8344  -8.7786  -8.7743  -8.6092  -8.2097  -8.0569  -8.0408  -7.8418
    -7.8391  -7.4515  -7.4499  -7.3113  -7.2574  -7.2207  -7.2188  -6.9748
    -6.9663  -6.5720  -6.5613  -6.1663  -6.1654  -5.8859  -5.4314  -5.3047
    -5.2911  -5.2129  -4.9348  -4.9073  -4.5205  -4.3706  -4.3566  -3.9931
    -2.2629  -1.6295  -1.4198  -1.4059  -1.3903  -1.3767  -1.3638  -1.3619
    -1.3461  -1.3416  -1.3169  -1.2673   0.6450   0.7957   0.9714   1.2140
     1.2241   1.4352   1.4899   1.5575   1.5769   1.5940

[...]

          k =-0.5000-0.8660 0.0000 ( 59292 PWs)   bands (ev):

[...]

 ------ SPIN DOWN ----------

[...]

          k = 0.5000-0.8660 0.0000 ( 59292 PWs)   bands (ev):

[...]

          k =-1.0000 0.0000 0.0000 ( 59292 PWs)   bands (ev):

   -68.0926 -68.0913 -39.6015 -39.6003 -39.5828 -39.5816 -39.5796 -39.5784
   -21.0740 -21.0308 -20.4811 -20.4673 -19.4289 -19.4268 -19.4226 -19.4083
   -19.0132 -18.9810 -18.3617 -18.3386 -18.3034 -18.2941 -17.8027 -17.7921
   -12.1033 -12.0860 -12.0507 -12.0475 -11.8896 -11.8779 -11.3536 -11.3195
   -10.2463 -10.2456 -10.1406 -10.1395 -10.1320 -10.1316  -8.5999  -8.5752
    -8.5638  -8.5377  -8.5296  -8.5008  -7.8802  -7.8745  -7.8677  -7.8662
    -7.8245  -7.8228  -7.7870  -7.7411  -7.5164  -7.4776  -6.6198  -6.6121
    -6.3462  -6.3112  -6.3011  -6.2763  -6.2117  -6.1828  -5.7205  -5.6796
    -5.5690  -5.5337  -4.7518  -4.7370  -4.6605  -4.6562  -3.8834  -3.8608
    -0.2197   0.7502   1.0389   1.1212   1.2544   1.3092   1.5055   1.5927
     1.6237   1.6724   1.8898   2.1515   2.1937   2.2995   2.3242   2.3925
     2.4081   2.5031   2.5510   2.5797   2.6370   2.6532

     the Fermi energy is    -0.8577 ev

!    total energy              =   -1133.81109340 Ry

     total all-electron energy =     -6753.486796 Ry
     estimated scf accuracy    <       0.00000006 Ry
     smearing contrib. (-TS)   =      -0.00000000 Ry
     internal energy E=F+TS    =   -1133.81109340 Ry

     The total energy is F=E-TS. E is the sum of the following terms:
     one-electron contribution =   -3914.32132840 Ry
     hartree contribution      =    1985.81235583 Ry
     xc contribution           =    -186.20510753 Ry
     ewald contribution        =    1340.26901072 Ry
     DFT-D3 Dispersion         =      -0.13822238 Ry
     one-center paw contrib.   =    -359.22780164 Ry

     total magnetization       =    12.00 Bohr mag/cell
     absolute magnetization    =    12.00 Bohr mag/cell

     convergence has been achieved in  12 iterations

     Writing output data file ./mytmp/Crdimer0.26-0.0.save/

     General routines

     Parallel routines

   This run was terminated on:  22:43: 7  29Mar2021

   JOB DONE.